John_L._Hennessy	0	0	0	0	0	0	0	0	1	0	
Mahbub_ul_Haq	1	0	0	0	0	0	0	0	0	0	
Lars_Onsager	0	0	1	1	1	0	0	0	0	0	
Govindarajan_Padmanaban	0	1	0	0	1	0	0	0	0	0	
Alexander_Tarasov	1	0	0	0	0	0	0	0	0	0	
Albert_Ingham	0	0	0	1	0	0	0	0	0	0	
Hugo_von_Seeliger	0	0	1	0	0	0	0	0	0	0	
Dragan_Maršićanin	1	0	0	0	0	0	0	0	0	0	
Andreas_von_Ettingshausen	0	0	1	1	0	0	0	0	0	0	
Henri_Padé	0	0	0	1	0	0	0	0	0	0	
Jean-Baptiste_Dumas	0	0	0	0	1	0	0	0	0	0	
Gilbert_Ames_Bliss	0	0	0	1	0	0	0	0	0	0	
Leonid_Hurwicz	1	0	0	1	0	0	0	0	0	0	
Antony_Hewish	0	0	1	0	0	0	0	0	0	0	
Edward_B._Lewis	0	1	0	0	0	0	0	0	0	1	
Alejandro_Toledo	1	0	0	0	0	0	0	0	0	0	
Leopold_Kronecker	0	0	0	1	0	0	0	0	0	0	
Wacław_Sierpiński	0	0	0	1	0	0	0	0	0	0	
Jan_L._A._van_de_Snepscheut	0	0	0	0	0	0	0	0	1	0	
Robert_Coldwell_Wood	1	0	0	1	0	0	0	0	0	0	
Henry_George	1	0	0	0	0	0	0	0	0	0	
Kurt_Goldstein	0	1	0	0	0	0	1	0	0	0	
Ted_Fujita	0	0	1	0	0	0	0	0	0	0	
Max_Tishler	0	0	0	0	1	0	0	0	0	0	
Douglas_Engelbart	0	0	0	0	0	0	0	0	1	1	
William_A._Spinks	0	1	0	0	0	0	0	0	0	0	
Roger_D._Kornberg	0	0	0	0	1	0	0	0	0	0	
Charles_Hermite	0	0	0	1	0	0	0	0	0	0	
Emil_Kraepelin	0	1	0	0	0	0	1	0	0	1	
Jean-Jacques_Rousseau	0	1	0	0	0	0	0	0	0	0	
Bruce_Schneier	0	0	0	0	0	0	0	0	1	0	
Bertil_Ohlin	1	0	0	0	0	0	0	0	0	0	
Helen_Clark	1	0	0	0	0	0	0	0	0	0	
Steve_Irwin	0	1	0	0	0	0	0	0	0	0	
Willis_R._Whitney	0	0	0	0	1	0	0	0	0	0	
E._T._Whittaker	0	0	1	1	0	0	0	0	0	0	
Job_Cohen	1	0	0	0	0	0	0	0	0	1	
Hermann_Emil_Fischer	0	0	0	0	1	0	0	0	0	0	
Nicholas_Kaldor	1	0	0	0	0	0	0	0	0	0	
Philip_Abelson	0	0	1	0	1	0	0	0	0	0	
Alexander_Bain	0	0	0	0	0	0	1	0	0	0	
Giuseppe_Peano	0	0	0	1	0	1	0	0	0	0	
Frank_P._Ramsey	1	0	0	1	0	0	0	0	0	0	
William_A._Barnett	1	0	0	0	0	0	0	0	0	0	
Frank_Press	0	0	1	0	0	0	0	1	0	0	
Stuart_A._Rice	0	0	1	0	1	0	0	0	0	0	
Ludwig_Mond	0	0	0	0	1	0	0	0	0	0	
Bruno_Latour	1	0	0	0	0	0	0	0	0	0	
Rod_Crewther	0	0	1	0	0	0	0	0	0	0	
Nicolas_Steno	0	0	0	0	0	0	0	1	0	0	
Øystein_Ore	0	0	0	1	0	0	0	0	0	0	
Jacobus_Kapteyn	0	0	1	0	0	0	0	0	0	0	
M._S._Raghunathan	0	0	0	1	0	0	0	0	0	0	
Roger_Adams	0	0	0	0	1	0	0	0	0	1	
Richard_Dawkins	0	1	0	0	0	0	0	0	0	0	
George_Porter	0	0	0	0	1	0	0	0	0	0	
Thabo_Mbeki	1	0	0	0	0	0	0	0	0	0	
David_Hume	1	0	0	0	0	0	0	0	0	0	
Ei-ichi_Negishi	0	0	0	0	1	0	0	0	0	0	
David_D._Friedman	1	0	1	0	0	0	0	0	0	0	
Alexei_Alexeyevich_Abrikosov	0	0	1	0	0	0	0	0	0	0	
Julia_Robinson	0	0	0	1	0	0	0	0	0	0	
Henry_Ludwell_Moore	1	0	0	0	0	0	0	0	0	0	
Joseph_Stiglitz	1	0	0	0	0	0	0	0	0	0	
Nikolai_Kondratiev	1	0	0	0	0	0	0	0	0	0	
Yuan_T._Lee	0	0	0	0	1	0	0	0	0	0	
Hermann_von_Helmholtz	0	1	1	0	1	0	1	0	0	0	
J._W._S._Cassels	0	0	0	1	0	0	0	0	0	0	
Leland_Yee	0	0	0	0	0	0	1	0	0	0	
Adolf_Butenandt	0	0	0	0	1	0	0	0	0	0	
Donald_Pederson	0	0	0	0	0	0	0	0	1	0	
Luc_Montagnier	0	1	0	0	0	0	0	0	0	1	
Norbert_Wiener	0	0	0	1	0	0	0	0	0	0	
Max_Dehn	0	0	0	1	0	0	0	0	0	0	
George_Pólya	0	0	1	1	0	0	0	0	0	0	
Jean_Piaget	0	1	0	0	0	1	1	0	0	1	
H._Robert_Horvitz	0	1	0	0	0	0	0	0	0	1	
Irwin_I._Shapiro	0	0	1	0	0	0	0	0	0	0	
Heinz_Fischer	1	0	0	0	0	0	0	0	0	0	
Tim_Hunt	0	1	0	0	1	0	0	0	0	0	
Ricardo_Lagos	1	0	0	0	0	0	0	0	0	0	
Edward_Forbes	0	1	0	0	0	0	0	1	0	0	
Willard_Boyle	0	0	1	0	0	0	0	0	0	0	
Kurt_H._Debus	0	0	1	0	0	0	0	0	0	0	
Wim_Crusio	0	1	0	0	0	0	0	0	0	0	
Raoul_Bott	0	0	1	1	0	0	0	0	0	0	
Harold_W._Kuhn	1	0	0	1	0	0	0	0	0	0	
Jean_Leray	0	0	0	1	0	0	0	0	0	0	
Hyman_Bass	0	0	0	1	0	0	0	0	0	0	
Ernest_Lawrence	0	0	1	0	0	0	0	0	0	0	
Theodor_Meynert	0	1	0	0	0	0	0	0	0	0	
James_Q._Wilson	1	0	0	0	0	0	0	0	0	0	
Carl_Ferdinand_Cori	0	0	0	0	1	0	0	0	0	0	
Igor_Kurchatov	0	0	1	0	0	0	0	0	0	0	
Pierre_Teilhard_de_Chardin	1	1	1	0	0	0	0	1	0	0	
Oded_Schramm	0	0	0	1	0	0	0	0	0	0	
Jean-Baptiste_Say	1	0	0	0	0	0	0	0	0	0	
Preston_McAfee	1	0	0	0	0	0	0	0	0	0	
Brian_Cox_(physicist)	0	0	1	0	0	0	0	0	0	0	
William_Shockley	0	0	1	0	0	0	0	0	0	0	
Leopold_Infeld	0	0	1	0	0	0	0	0	0	0	
Clinton_Davisson	0	0	1	0	0	0	0	0	0	0	
Robert_Kagan	1	0	0	0	0	0	0	0	0	0	
Bernard_Brodie_(biochemist)	0	0	0	0	1	0	0	0	0	0	
Robert_Burns_Woodward	0	0	0	0	1	0	0	0	0	0	
Jerome_Lettvin	0	1	0	0	0	0	0	0	0	0	
Kunihiko_Kodaira	0	0	0	1	0	0	0	0	0	0	
Richard_Evans_Schultes	1	1	0	0	0	0	0	0	0	1	
Tom_Blundell	0	0	1	0	1	0	0	0	0	0	
Philippe_Flajolet	0	0	0	1	0	0	0	0	1	0	
Henry_Taube	0	0	0	0	1	0	0	0	0	0	
Alain_Aspect	0	0	1	0	0	0	0	0	0	0	
Heraclitus	0	0	1	0	0	0	0	0	0	0	
Thomas_Gold	0	0	1	0	0	0	0	1	0	0	
Eli_Lilly	0	0	0	0	1	0	0	0	0	0	
Mark_Bevir	1	0	0	0	0	0	0	0	0	0	
Lillian_Moller_Gilbreth	0	0	0	0	0	0	1	0	0	0	
Isaiah_Berlin	1	0	0	0	0	0	0	0	0	0	
William_Feller	0	0	0	1	0	0	0	0	0	0	
Adriaan_van_Wijngaarden	0	0	0	1	0	0	0	0	1	0	
Johannes_Diderik_van_der_Waals	0	0	1	0	1	0	0	0	0	0	
Hermann_Minkowski	0	0	1	1	0	0	0	0	0	0	
Danny_Hillis	0	0	0	1	0	0	0	0	1	0	
Frank_Anscombe	0	0	0	1	0	0	0	0	0	0	
Doris_Duke	0	1	0	0	0	0	0	0	0	0	
Gustav_Fechner	0	0	1	1	0	0	1	0	0	0	
Richard_Hamming	0	0	0	1	0	0	0	0	1	0	
Edward_Teller	0	0	1	0	0	0	0	0	0	0	
Paul_Wolfowitz	1	0	0	0	0	0	0	0	0	0	
Vandana_Shiva	1	1	1	0	0	0	0	0	0	0	
Kevin_Warwick	0	1	0	0	0	0	0	0	0	1	
Johannes_Kepler	0	0	1	1	0	0	0	0	0	0	
John_Kingman	0	1	0	1	0	0	0	0	0	0	
Félix_Guattari	0	0	0	0	0	0	1	0	0	0	
Laima_Andrikienė	1	0	0	0	0	0	0	0	0	0	
Hans_Kramers	0	0	1	1	0	0	0	0	0	0	
Jean_Dausset	0	1	0	0	0	0	0	0	0	0	
Salimuzzaman_Siddiqui	0	0	0	0	1	0	0	0	0	0	
Susan_Athey	1	0	0	0	0	0	0	0	0	0	
Herman_Tjeenk_Willink	0	0	0	0	0	0	0	0	0	1	
Aleš_Debeljak	1	0	0	0	0	0	0	0	0	0	
William_Vickrey	1	0	0	0	0	0	0	0	0	0	
Solomon_Lefschetz	0	0	0	1	0	0	0	0	0	0	
Dmitry_Grave	0	0	0	1	0	0	0	0	0	0	
Michael_J._Hopkins	0	0	0	1	0	0	0	0	0	0	
Ludwig_Boltzmann	0	0	1	1	1	0	0	0	0	0	
Margaret_Mead	1	0	0	0	0	0	1	0	0	0	
Charles_Galton_Darwin	0	0	1	1	0	0	0	0	0	0	
Leopold_Ružička	0	0	0	0	1	0	0	0	0	0	
Günter_Blobel	0	1	0	0	1	0	0	0	0	1	
Gaston_Eyskens	1	0	0	0	0	0	0	0	0	0	
Toshihide_Maskawa	0	0	1	0	0	0	0	0	0	0	
Robin_Wilson_(mathematician)	0	0	0	1	0	0	0	0	0	0	
Howard_H._Aiken	0	0	1	0	0	0	0	0	1	0	
Sudha_Murthy	0	0	0	0	0	0	0	0	1	0	
Marvin_Minsky	0	0	0	1	0	0	0	0	1	1	
Alexander_Graham_Bell	0	0	1	0	0	0	0	0	0	0	
Dimitri_Nanopoulos	0	0	1	0	0	0	0	0	0	0	
Samuel_Cate_Prescott	0	1	0	0	1	0	0	0	0	0	
Andrew_Fire	0	1	0	0	0	0	0	0	0	0	
Ivan_Petrovsky	0	0	0	1	0	0	0	0	0	0	
Daniel_Dennett	0	0	0	0	0	0	1	0	0	1	
Grigori_Perelman	0	0	0	1	0	0	0	0	0	0	
Harold_Stark	0	0	0	1	0	0	0	0	0	0	
Keith_O'Nions	0	0	0	0	0	0	0	1	0	0	
Alexander_Goldenweiser_(anthropologist)	1	0	0	0	0	0	0	0	0	0	
George_Pake	0	0	1	0	0	0	0	0	0	0	
David_Lee_(physicist)	0	0	1	0	0	0	0	0	0	0	
Ferid_Murad	0	1	0	0	0	0	0	0	0	0	
Raja_Ramanna	0	0	1	0	0	0	0	0	0	0	
Thomas_Cech	0	0	0	0	1	0	0	0	0	1	
Ludwig_von_Mises	1	0	0	0	0	0	0	0	0	0	
Adolf_Eugen_Fick	0	1	1	0	0	0	0	0	0	0	
George_M._Whitesides	0	0	0	0	1	0	0	0	0	0	
René_Thom	0	1	0	1	0	0	0	0	0	0	
Carl_David_Anderson	0	0	1	0	0	0	0	0	0	0	
John_Warnock	0	0	0	0	0	0	0	0	1	1	
Henry_Hazlitt	1	0	0	0	0	0	0	0	0	0	
Samuel_Eilenberg	0	0	0	1	0	0	0	0	0	0	
Johann_Andreas_Segner	0	1	1	1	0	0	0	0	0	0	
Shing-Tung_Yau	0	0	0	1	0	0	0	0	0	1	
Julian_Rotter	0	0	0	0	0	0	1	0	0	0	
Friedrich_Konrad_Beilstein	0	0	0	0	1	0	0	0	0	0	
Angela_Merkel	0	0	1	0	1	0	0	0	0	0	
Roger_Blandford	0	0	1	0	0	0	0	0	0	0	
Alan_Bundy	0	0	0	0	0	0	0	0	1	1	
John_Hopfield	0	1	1	0	0	0	0	0	0	1	
Zygmunt_Bauman	1	0	0	0	0	0	0	0	0	0	
Daniel_J._Bernstein	0	0	0	1	0	0	0	0	1	0	
Hironobu_Sakaguchi	0	0	0	0	0	0	0	0	1	0	
Andrei_Snezhnevsky	0	0	0	0	0	0	0	0	0	1	
Montgomery_McFate	1	0	0	0	0	0	0	0	0	0	
Robert_L._Forward	0	0	1	0	0	0	0	0	0	0	
Jan-Åke_Gustafsson	0	0	0	0	1	0	0	0	0	0	
John_Coleman_Moore	0	0	0	1	0	0	0	0	0	0	
Zbigniew_Messner	1	0	0	0	0	0	0	0	0	0	
Subrahmanyan_Chandrasekhar	0	0	1	1	0	0	0	0	0	0	
David_Kazhdan	0	0	0	1	0	0	0	0	0	0	
Gary_Becker	1	0	0	0	0	0	0	0	0	0	
Ralph_L._Brinster	0	1	0	0	0	0	0	0	0	0	
Philip_Rubin	0	0	0	0	0	1	1	0	0	1	
William_Ramsay	0	0	0	0	1	0	0	0	0	0	
Friedrich_L._Bauer	0	0	0	1	0	0	0	0	1	0	
Bernard_Bolzano	0	0	0	1	0	0	0	0	0	0	
Daniel_McFadden	1	0	0	1	0	0	0	0	0	0	
Mikhail_Leonidovich_Gromov	0	0	0	1	0	0	0	0	0	1	
Avram_Hershko	0	1	0	0	1	0	0	0	0	0	
Lamberto_Cesari	0	0	0	1	0	0	0	0	0	0	
Richard_Askey	0	0	0	1	0	0	0	0	0	0	
John_Dewey	0	0	0	0	0	0	1	0	0	0	
Kurt_Alder	0	0	0	0	1	0	0	0	0	0	
Michael_Atiyah	0	0	0	1	0	0	0	0	0	0	
Nikolaas_Tinbergen	0	1	0	0	0	0	0	0	0	1	
Frank_Kelly_(mathematician)	0	0	0	1	0	0	0	0	0	1	
Fredric_Jameson	1	0	0	0	0	0	0	0	0	0	
Garrett_Birkhoff	0	0	0	1	0	0	0	0	0	0	
Montesquieu	1	0	0	0	0	0	0	0	0	0	
Vladimir_Vernadsky	0	1	0	0	1	0	0	1	0	0	
B._R._Ambedkar	1	0	0	0	0	0	0	0	0	0	
Michael_Fisher	0	0	1	0	0	0	0	0	0	0	
Ernst_Jünger	0	1	0	0	0	0	0	0	0	0	
Martin_David_Jenkins	1	0	0	0	0	0	0	0	0	0	
Donald_Johanson	1	1	0	0	0	0	0	0	0	0	
Theodor_W._Adorno	1	0	0	0	0	0	1	0	0	0	
Daniel_J._Boorstin	1	0	0	0	0	0	0	0	0	0	
Ibn_Tufail	0	0	1	0	0	0	0	0	0	0	
Akihito	0	1	0	0	0	0	0	0	0	0	
Ernest_Rutherford	0	0	1	0	1	0	0	0	0	0	
Jules_Tannery	0	0	0	1	0	0	0	0	0	0	
Alexander_Gelfond	0	0	0	1	0	0	0	0	0	0	
Arthur_Rudolf_Hantzsch	0	0	0	0	1	0	0	0	0	0	
Jacques_Derrida	0	0	0	0	0	1	0	0	0	0	
Camille_Sandorfy	0	0	0	0	1	0	0	0	0	0	
Juanita_M._Kreps	1	0	0	0	0	0	0	0	0	0	
Georgios_Papandreou	1	0	0	0	0	0	0	0	0	0	
Jerry_Fodor	0	0	0	0	0	1	1	0	0	1	
Henri_Cernuschi	1	0	0	0	0	0	0	0	0	0	
Michał_Kalecki	1	0	0	0	0	0	0	0	0	0	
Guido_Castelnuovo	0	0	0	1	0	0	0	0	0	0	
Ludwig_Prandtl	0	0	1	0	0	0	0	0	0	0	
Manjul_Bhargava	0	0	0	1	0	0	0	0	0	0	
Hilary_Putnam	0	0	0	1	0	0	0	0	0	0	
Allan_Bloom	1	0	0	0	0	0	0	0	0	0	
Édouard_Balladur	1	0	0	0	0	0	0	0	0	0	
Aristotle	0	1	1	1	0	0	0	0	0	1	
Anand_Panyarachun	1	0	0	0	0	0	0	0	0	0	
Paul_Davies	0	0	1	0	0	0	0	0	0	0	
Jack_Kilby	0	0	1	0	0	0	0	0	1	0	
Bryan_John_Birch	0	0	0	1	0	0	0	0	0	0	
James_Franck	0	0	1	0	1	0	0	0	0	0	
Norman_Kemp_Smith	0	0	0	0	0	0	1	0	0	0	
Rudolf_Carnap	0	0	0	1	0	0	0	0	0	0	
Max_Weber	1	0	0	0	0	0	0	0	0	0	
Immanuel_Kant	1	0	0	0	0	0	0	0	0	0	
Mario_J._Molina	0	0	0	0	1	0	0	0	0	0	
Donella_Meadows	0	0	0	0	1	0	0	0	0	0	
Harold_Demsetz	1	0	0	0	0	0	0	0	0	0	
Tim_Berners-Lee	0	0	1	0	0	0	0	0	1	0	
Arnaud_Denjoy	0	0	0	1	0	0	0	0	0	0	
George_David_Birkhoff	0	0	0	1	0	0	0	0	0	0	
Melville_J._Herskovits	1	0	0	0	0	0	0	0	0	0	
Kamil_Zvelebil	0	0	0	0	0	1	0	0	0	0	
Yoshiki_Okamoto	0	0	0	0	0	0	0	0	1	0	
George_Akerlof	1	0	0	0	0	0	0	0	0	0	
Viktor_Meyer	0	0	0	0	1	0	0	0	0	0	
Andreas_Papandreou	1	0	0	0	0	0	0	0	0	0	
Steve_Jobs	0	0	0	0	0	0	0	0	1	0	
Frank_Fetter	1	0	0	0	0	0	0	0	0	0	
Ishfaq_Ahmad	0	0	1	0	0	0	0	0	0	0	
Teófilo_Braga	1	0	0	0	0	0	0	0	0	0	
Abdul_Qadeer_Khan	0	0	1	0	1	0	0	0	0	0	
Milton_Friedman	1	0	0	0	0	0	0	0	0	0	
Keith_Runcorn	0	0	1	0	0	0	0	1	0	0	
George_Lakoff	0	0	0	0	0	1	1	0	0	1	
Antoni_Zygmund	0	0	0	1	0	0	0	0	0	0	
Arthur_Holmes	0	0	1	0	0	0	0	1	0	0	
James_Watt	0	0	1	1	1	0	0	0	0	0	
Robert_Solow	1	0	0	0	0	0	0	0	0	0	
Robert_H._Dicke	0	0	1	0	0	0	0	0	0	0	
Carlo_Rovelli	0	0	1	0	0	0	0	0	0	0	
Marie_Maynard_Daly	0	0	0	0	1	0	0	0	0	0	
Mstislav_Keldysh	0	0	0	1	0	0	0	0	0	0	
Max_Wolf	0	0	1	0	0	0	0	0	0	0	
Slavoj_Žižek	1	0	0	0	0	0	0	0	0	0	
John_Horton_Conway	0	0	0	1	0	0	0	0	1	0	
Gustav_Ludwig_Hertz	0	0	1	0	0	0	0	0	0	0	
Richard_N._Frye	1	0	0	0	0	0	0	0	0	0	
C._V._Raman	0	0	1	0	0	0	0	0	0	0	
B._F._Skinner	0	1	0	0	0	0	1	0	0	0	
Arthur_F._Burns	1	0	0	0	0	0	0	0	0	0	
Eric_Kandel	0	1	1	0	1	0	0	0	0	1	
Gerald_J._Wasserburg	0	0	1	0	0	0	0	1	0	0	
David_Crighton	0	0	0	1	0	0	0	0	0	0	
Peter_Cameron_(mathematician)	0	0	0	1	0	0	0	0	0	0	
Eberhard_Hopf	0	0	1	1	0	0	0	0	0	0	
James_Clerk_Maxwell	0	0	1	1	0	0	0	0	0	0	
Santiago_Ramón_y_Cajal	0	1	0	0	0	0	0	0	0	0	
Carl_Wieman	0	0	1	1	0	0	0	0	0	0	
William_James	0	0	0	0	0	0	1	0	0	1	
Wilhelm_Specht	0	0	0	1	0	0	0	0	0	0	
K._Alex_Müller	0	0	1	0	0	0	0	0	0	0	
Aryeh_Dvoretzky	0	0	0	1	0	0	0	0	0	0	
Anne_Fausto-Sterling	0	1	0	0	0	0	0	0	0	0	
Conyers_Herring	0	0	1	0	0	0	0	0	0	0	
Howard_Martin_Temin	0	1	0	0	0	0	0	0	0	0	
Henry_Sidgwick	1	0	0	0	0	0	1	0	0	0	
Nikolai_Brashman	0	0	0	1	0	0	0	0	0	0	
Philippa_Foot	0	0	0	0	0	1	0	0	0	0	
Stephen_Jay_Gould	0	1	0	0	0	0	0	1	0	0	
Josiah_Willard_Gibbs	0	0	1	1	1	0	0	0	0	0	
Sophus_Lie	0	0	0	1	0	0	0	0	0	0	
Karl_von_Auwers	0	0	0	0	1	0	0	0	0	0	
David_Harvey	1	0	0	0	0	0	0	0	0	0	
Carl_Jung	0	0	0	0	0	0	1	0	0	0	
Klaus_Fuchs	0	0	1	0	0	0	0	0	0	0	
Gottfried_Wilhelm_Leibniz	0	0	1	1	0	0	0	0	0	0	
Fotis_Kafatos	0	1	0	0	0	0	0	0	0	0	
Oskar_Lafontaine	0	0	1	0	0	0	0	0	0	0	
Mlađan_Dinkić	1	0	0	0	0	0	0	0	0	0	
Elizabeth_Loftus	1	0	0	1	0	0	1	0	0	1	
Larry_Ellison	0	0	0	0	0	0	0	0	1	0	
Julian_Huxley	0	1	0	0	0	0	0	0	0	0	
Kurt_Lewin	1	0	0	0	0	0	1	0	0	0	
Jean_Gaston_Darboux	0	0	0	1	0	0	0	0	0	0	
Augustin_Deac	1	0	0	0	0	0	0	0	0	0	
László_Lovász	0	0	0	1	0	0	0	0	1	1	
Vladimir_Lenin	1	0	0	0	0	0	0	0	0	0	
Thaddeus_S._C._Lowe	0	0	0	0	1	0	0	0	0	0	
Alexius_Meinong	0	0	0	0	0	0	1	0	0	0	
György_Lukács	1	0	0	0	0	0	0	0	0	0	
Léon_Walras	1	0	0	0	0	0	0	0	0	0	
Richard_Sykes_(biochemist)	0	1	0	0	1	0	0	0	0	0	
Wilhelm_von_Humboldt	1	0	0	0	0	1	0	0	0	0	
Murray_Barnson_Emeneau	0	0	0	0	0	1	0	0	0	0	
Daron_Acemoğlu	1	0	0	0	0	0	0	0	0	0	
Jean-Pierre_Serre	0	0	0	1	0	0	0	0	0	0	
Gustav_Kirchhoff	0	0	1	0	1	0	0	0	0	0	
Henri_Marie_Ducrotay_de_Blainville	0	1	0	0	0	0	0	0	0	0	
Gaston_Bachelard	1	0	0	0	0	0	0	0	0	0	
Thomas_Sowell	1	0	0	0	0	0	0	0	0	1	
Walter_Eric_Spear	0	0	1	0	0	0	0	0	0	0	
Maurice_René_Fréchet	0	0	0	1	0	0	0	0	0	0	
Élie_Metchnikoff	0	1	0	0	0	0	0	0	0	0	
August_Ferdinand_Möbius	0	0	1	1	0	0	0	0	0	0	
Corneille_Heymans	0	1	0	0	0	0	0	0	0	0	
Wilhelm_Wirtinger	0	0	0	1	0	0	0	0	0	0	
Daniel_Pauly	0	1	0	0	0	0	0	0	0	0	
Wilhelm_Eduard_Weber	0	0	1	0	0	0	0	0	0	0	
Alfred_Schütz	1	0	0	0	0	0	0	0	0	0	
Eugene_Lindsay_Opie	0	1	0	0	0	0	0	0	0	0	
Sergei_Korolev	0	0	1	0	0	0	0	0	0	0	
Walter_Thirring	0	0	1	0	0	0	0	0	0	0	
Edward_Norton_Lorenz	0	0	0	1	0	0	0	0	0	0	
Charles_G._Dawes	1	0	0	0	0	0	0	0	0	0	
Joseph_Valentin_Boussinesq	0	0	1	1	0	0	0	0	0	0	
Thor_Heyerdahl	1	0	0	0	0	0	0	0	0	0	
Johannes_Wislicenus	0	0	0	0	1	0	0	0	0	0	
Jocelyn_Bell_Burnell	0	0	1	0	0	0	0	0	0	0	
Theodore_William_Richards	0	0	0	0	1	0	0	0	0	0	
Robert_S._Langer	0	0	0	0	1	0	0	0	0	0	
Robin_Milner	0	0	0	0	0	0	0	0	1	1	
Gregory_Bateson	1	1	0	0	0	1	1	0	0	1	
Thomas_Meehan_(botanist)	0	1	0	0	0	0	0	0	0	0	
Alpheus_Hyatt_Verrill	1	0	0	0	0	0	0	0	0	0	
Jean-Christophe_Yoccoz	0	0	0	1	0	0	0	0	0	0	
Li_Fang-Kuei	0	0	0	0	0	1	0	0	0	0	
Andrew_Dilnot	1	0	0	0	0	0	0	0	0	0	
Felix_Klein	0	0	0	1	0	0	0	0	0	0	
Charles_Glover_Barkla	0	0	1	0	0	0	0	0	0	0	
Teiji_Takagi	0	0	0	1	0	0	0	0	0	0	
Georges_Sorel	1	0	0	0	0	0	0	0	0	0	
Wander_Johannes_de_Haas	0	0	1	0	0	0	0	0	0	0	
Otto_Stern	0	0	1	0	1	0	0	0	0	0	
Marlan_Scully	0	0	1	0	0	0	0	0	0	0	
Petr_Vaníček	0	0	1	0	0	0	0	0	0	0	
Hendrik_C._van_de_Hulst	0	0	1	0	0	0	0	0	0	0	
Eveline_Widmer-Schlumpf	1	0	0	0	0	0	0	0	0	0	
Pierre_Curie	0	0	1	0	1	0	0	0	0	0	
David_Bohm	0	0	1	0	0	0	0	0	0	1	
Yakov_Borisovich_Zel'dovich	0	0	1	0	0	0	0	0	0	0	
Guido_Fubini	0	0	0	1	0	0	0	0	0	0	
Walther_Nernst	0	0	1	0	1	0	0	0	0	0	
Alonzo_Church	0	0	0	1	0	0	0	0	1	0	
Karl_Weierstrass	0	0	0	1	0	0	0	0	0	0	
Benedict_Anderson	1	0	0	0	0	0	0	0	0	0	
Kannan_Soundararajan	0	0	0	1	0	0	0	0	0	0	
Lipman_Bers	0	0	0	1	0	0	0	0	0	0	
Laurens_Jan_Brinkhorst	0	0	0	0	0	0	0	0	0	1	
Maximilian_de_Beauharnais,_3rd_Duke_of_Leuchtenberg	0	1	0	0	0	0	0	0	0	0	
Catharine_MacKinnon	0	0	0	0	0	0	0	0	0	1	
Yoshio_Sakamoto	0	0	0	0	0	0	0	0	1	0	
Andrius_Kubilius	0	0	1	0	0	0	0	0	0	0	
Alan_Perlis	0	0	0	1	0	0	0	0	1	0	
Pantur_Silaban	0	0	1	0	0	0	0	0	0	0	
Otto_Newman	1	0	0	0	0	0	0	0	0	0	
Robert_Owen	1	0	0	0	0	0	0	0	0	0	
Ernst_Cassirer	0	0	0	0	0	1	0	0	0	0	
Peter_Dervan	0	0	0	0	1	0	0	0	0	0	
Jens_Eisert	0	0	1	0	0	0	0	0	0	0	
John_R._Commons	1	0	0	0	0	0	0	0	0	0	
A._P._J._Abdul_Kalam	0	0	1	0	0	0	0	0	0	0	
Athene_Donald	0	0	1	0	1	0	0	0	0	0	
Wang_Ganchang	0	0	1	0	0	0	0	0	0	0	
Bamir_Topi	0	1	0	0	0	0	0	0	0	0	
Ignacio_Tinoco,_Jr.	0	0	0	0	1	0	0	0	0	0	
G._H._Hardy	0	1	0	1	0	0	0	0	0	0	
Peter_Higgs	0	0	1	0	0	0	0	0	0	0	
John_Maynard_Smith	0	1	0	1	0	0	0	0	0	0	
Franz_Brentano	0	0	0	0	0	0	1	0	0	0	
Niklas_Luhmann	1	0	0	0	0	0	0	0	0	0	
David_Chalmers	0	0	0	0	0	0	0	0	0	1	
Otto_Wallach	0	0	0	0	1	0	0	0	0	0	
Dmitri_Egorov	0	0	0	1	0	0	0	0	0	0	
Michael_E._DeBakey	0	0	0	0	0	0	0	0	0	1	
Eugene_Parker	0	0	1	0	0	0	0	0	0	0	
Morris_Halle	0	0	0	0	0	1	0	0	0	0	
Adam_Smith	1	0	0	0	0	0	0	0	0	0	
Frank_B._Jewett	0	0	1	0	0	0	0	0	0	0	
Czesław_Miłosz	0	0	0	0	0	1	0	0	0	0	
Charles_Grafton_Page	0	0	1	0	0	0	0	0	0	0	
Anthony_James_Leggett	0	0	1	0	0	0	0	0	0	0	
Johnny_Clegg	1	0	0	0	0	0	0	0	0	0	
Abdullah_Gül	1	0	0	0	0	0	0	0	0	0	
Barry_Everitt_(scientist)	0	1	0	0	0	0	0	0	0	0	
Jacques_Monod	0	1	0	0	1	0	0	0	0	0	
Brian_Mikkelsen	1	0	0	0	0	0	0	0	0	0	
Saul_Kripke	0	0	0	0	0	1	0	0	0	0	
John_Kenneth_Galbraith	1	0	0	0	0	0	0	0	0	0	
Karl_Rubin	0	0	0	1	0	0	0	0	0	0	
Frank_Oppenheimer	0	0	1	0	0	0	0	0	0	0	
Mary_Ball	0	1	0	0	0	0	0	0	0	0	
Irving_Kaplansky	0	0	0	1	0	0	0	0	0	0	
Stamford_Raffles	0	1	0	0	0	0	0	0	0	0	
Michael_Halliday	0	0	0	0	0	1	0	0	0	0	
Peter_H._Raven	0	1	0	0	0	0	0	0	0	0	
Sergei_P._Kurdyumov	0	0	1	0	0	0	0	0	0	0	
John_Preskill	0	0	1	0	0	0	0	0	0	0	
Irène_Joliot-Curie	0	0	1	0	1	0	0	0	0	0	
Alexandre_Koyré	0	0	1	1	0	0	0	0	0	0	
Christopher_Bishop	0	0	1	0	0	0	0	0	1	0	
Anders_Fogh_Rasmussen	1	0	0	0	0	0	0	0	0	0	
Joseph_Weber	0	0	1	0	0	0	0	0	0	1	
David_Gregory_(mathematician)	0	0	1	1	0	0	0	0	0	0	
Wangari_Maathai	0	1	0	0	0	0	0	0	0	0	
John_B._Taylor	1	0	0	0	0	0	0	0	0	0	
Steven_N._S._Cheung	1	0	0	0	0	0	0	0	0	0	
Adolph_Strecker	0	0	0	0	1	0	0	0	0	0	
Hidehiko_Yamabe	0	0	0	1	0	0	0	0	0	0	
Chien-Shiung_Wu	0	0	1	0	0	0	0	0	0	0	
Vitaly_Ginzburg	0	0	1	0	0	0	0	0	0	0	
Kiyoshi_Oka	0	0	0	1	0	0	0	0	0	0	
Norman_Borlaug	0	1	0	0	0	0	0	0	0	0	
Phillip_Griffiths	0	0	0	1	0	0	0	0	0	0	
David_Sloan_Wilson	0	1	0	0	0	0	0	0	0	0	
James_Pierpont_(mathematician)	0	0	0	1	0	0	0	0	0	0	
Joshua_Lederberg	0	1	0	0	0	0	0	0	0	1	
H._Eugene_Stanley	0	0	1	1	0	0	0	0	0	0	
Paul_Ehrenfest	0	0	1	0	0	0	0	0	0	0	
Vojislav_Koštunica	1	0	0	0	0	0	0	0	0	0	
Alexander_von_Humboldt	0	1	0	0	0	0	0	1	0	0	
Roger_Wolcott_Sperry	0	1	0	0	0	0	1	0	0	1	
Alfonso_López_Pumarejo	1	0	0	0	0	0	0	0	0	0	
Roberta_Williams	0	0	0	0	0	0	0	0	1	0	
Henri_Poincaré	0	0	1	1	0	0	0	0	0	0	
Zoran_Đinđić	1	0	0	0	0	0	0	0	0	0	
Alexander_Shulgin	0	0	0	0	1	0	0	0	0	1	
Susan_Lindquist	0	1	0	0	0	0	0	0	0	1	
Salomon_Bochner	0	0	0	1	0	0	0	0	0	0	
James_Joseph_Sylvester	0	0	0	1	0	0	0	0	0	0	
Barton_Zwiebach	0	0	1	0	0	0	0	0	0	0	
Knut_Wicksell	1	0	0	0	0	0	0	0	0	0	
Stephen_Kuffler	0	1	0	0	0	0	0	0	0	0	
Michael_Dummett	0	0	0	0	0	1	0	0	0	0	
Alphonse_Pyramus_de_Candolle	0	1	0	0	0	0	0	0	0	0	
Myron_Scholes	1	0	0	0	0	0	0	0	0	0	
Étienne_Geoffroy_Saint-Hilaire	0	1	0	0	0	0	0	0	0	0	
Ivan_Pavlov	0	1	0	0	0	0	1	0	0	0	
Leon_O._Chua	0	0	0	0	0	0	0	0	1	0	
Igor_Frenkel	0	0	0	1	0	0	0	0	0	0	
Bohdan_Paczyński	0	0	1	0	0	0	0	0	0	0	
Astro_Teller	0	0	0	0	0	0	0	0	1	1	
Jacques_Hadamard	0	0	1	1	0	0	0	0	0	0	
Maxim_Kontsevich	0	0	0	1	0	0	0	0	0	0	
José_Serra	1	0	0	0	0	0	0	0	0	0	
Willem_'s_Gravesande	0	0	1	1	0	0	0	0	0	0	
Valentine_Telegdi	0	0	1	0	0	0	0	0	0	0	
Georges_Vacher_de_Lapouge	1	0	0	0	0	0	0	0	0	0	
Tomasz_Mrowka	0	0	0	1	0	0	0	0	0	0	
Charles_Darwin	0	1	0	0	0	0	1	1	0	0	
Amos_Eaton	0	1	0	0	0	0	0	1	0	0	
Max_Perutz	0	1	1	0	1	0	0	0	0	0	
Edmond_Halley	0	0	1	1	0	0	0	1	0	0	
Albert_Einstein	0	0	1	0	0	0	0	0	0	0	
Thomas_Hobbes	1	0	0	0	0	0	0	0	0	0	
John_Edensor_Littlewood	0	0	0	1	0	0	0	0	0	0	
Isaac_Newton	0	0	1	1	1	0	0	0	0	0	
Els_Borst	0	0	0	0	0	0	0	0	0	1	
Jeremiah_P._Ostriker	0	0	1	0	0	0	0	0	0	0	
Herbert_Robbins	0	0	0	1	0	0	0	0	0	0	
Crispin_Nash-Williams	0	0	0	1	0	0	0	0	0	0	
Felix_Bloch	0	0	1	0	0	0	0	0	0	0	
Linda_Partridge	0	1	0	0	0	0	0	0	0	1	
Frederick_Jelinek	0	0	0	0	0	0	0	0	1	0	
Arne_Tiselius	0	0	0	0	1	0	0	0	0	0	
Isaac_Todhunter	0	0	0	1	0	0	0	0	0	0	
Giulio_Tremonti	1	0	0	0	0	0	0	0	0	0	
Immanuel_Wallerstein	1	0	0	0	0	0	0	0	0	0	
Otto_Ruff	0	0	0	0	1	0	0	0	0	0	
Paul_Erdős	0	0	0	1	0	0	0	0	0	1	
Hans_Apel	1	0	0	0	0	0	0	0	0	0	
David_Ricardo	1	0	0	0	0	0	0	0	0	0	
Thomas_M._Cover	0	0	0	1	0	0	0	0	0	0	
Paul_Dirac	0	0	1	1	0	0	0	0	0	0	
Nicholas_Georgescu-Roegen	1	0	0	1	0	0	0	0	0	0	
Ralf_Dahrendorf	1	0	0	0	0	0	0	0	0	0	
Guglielmo_Marconi	0	0	1	0	0	0	0	0	0	0	
Robert_Costanza	1	1	0	0	0	0	0	0	0	0	
Richard_Rorty	0	0	0	0	0	1	0	0	0	0	
George_Chrystal	0	0	0	1	0	0	0	0	0	0	
Taras_Shevchenko	1	0	0	0	0	0	0	0	0	0	
Evan_Durbin	1	0	0	0	0	0	0	0	0	0	
G._N._Ramachandran	0	1	1	0	1	0	0	0	0	0	
Karl_Herzfeld	0	0	1	0	0	0	0	0	0	0	
Pavel_Alexandrov	0	0	0	1	0	0	0	0	0	0	
Pierre_Bourdieu	1	0	0	0	0	0	0	0	0	0	
Alexander_Friedmann	0	0	1	1	0	0	0	1	0	0	
Jagadish_Chandra_Bose	0	1	1	0	1	0	0	0	0	0	
Murray_Gell-Mann	0	0	1	0	0	0	0	0	0	0	
Leroy_Hood	0	1	0	0	0	0	0	0	0	0	
Carl_David_Tolmé_Runge	0	0	1	1	0	0	0	0	0	0	
Jacques-Arsène_d'Arsonval	0	1	1	0	0	0	0	0	0	0	
Euclid	0	0	0	1	0	0	0	0	0	0	
Richard_Tarnas	0	0	0	0	0	0	1	0	0	0	
Rod_Burstall	0	0	0	0	0	0	0	0	1	0	
Eugène_Minkowski	0	0	0	0	0	0	0	0	0	1	
Noam_Chomsky	1	0	0	0	0	1	1	0	1	1	
Max_Bodenstein	0	0	1	0	1	0	0	0	0	0	
Karl_Georg_Christian_von_Staudt	0	0	0	1	0	0	0	0	0	0	
Ernest_Becker	1	0	0	0	0	0	1	0	0	0	
Jacques_Soustelle	1	0	0	0	0	0	0	0	0	0	
Ludwig_Bieberbach	0	0	0	1	0	0	0	0	0	0	
Andrei_Gromyko	1	0	0	0	0	0	0	0	0	0	
Wesley_Clair_Mitchell	1	0	0	1	0	0	0	0	0	0	
Fernand_Labrie	0	0	0	0	0	0	0	0	0	1	
Nathan_Myhrvold	0	0	0	1	0	0	0	0	1	0	
Robin_Lakoff	0	0	0	0	0	1	0	0	0	0	
Har_Gobind_Khorana	0	1	0	0	1	0	0	0	0	0	
Émile_Borel	0	0	0	1	0	0	0	0	0	0	
Ziauddin_Ahmad	0	0	0	1	0	0	0	0	0	0	
Tom_M._Apostol	0	0	0	1	0	0	0	0	0	0	
Franz_S._Exner	0	0	1	0	0	0	0	0	0	0	
Ben_Bernanke	1	0	0	0	0	0	0	0	0	0	
Arthur_Evans	1	0	0	0	0	0	0	0	0	0	
Graeme_Segal	0	0	0	1	0	0	0	0	0	0	
Sharadchandra_Shankar_Shrikhande	0	0	0	1	0	0	0	0	0	0	
Gottlob_Frege	0	0	0	1	0	1	0	0	0	0	
Marc_Tiffeneau	0	0	0	0	1	0	0	0	0	0	
Gerd_Faltings	0	0	0	1	0	0	0	0	0	0	
Heisuke_Hironaka	0	0	0	1	0	0	0	0	0	0	
Emile_Vandervelde	1	0	0	0	0	0	0	0	0	0	
Émile_Durkheim	1	0	0	0	0	0	0	0	0	0	
Alan_Sokal	0	0	1	1	0	0	0	0	0	0	
Ashoke_Sen	0	0	1	0	0	0	0	0	0	0	
Hillel_Furstenberg	0	0	0	1	0	0	0	0	0	0	
Otto_Toeplitz	0	0	0	1	0	0	0	0	0	0	
Grace_Hopper	0	0	1	1	0	0	0	0	1	0	
Robert_R._Williams	0	0	0	0	1	0	0	0	0	0	
George_Gaylord_Simpson	0	1	0	0	0	0	0	0	0	0	
Avi_Wigderson	0	0	0	1	0	0	0	0	1	0	
Daniel_C._Tsui	0	0	1	0	0	0	0	0	0	0	
René_Dubos	0	1	0	0	0	0	0	0	0	0	
Ted_Nelson	1	0	0	0	0	0	0	0	1	0	
Paul_Allen	0	0	0	0	0	0	0	0	1	0	
Julius_Edgar_Lilienfeld	0	0	1	0	0	0	0	0	0	0	
Herbert_Hoover	0	0	0	0	0	0	0	1	0	0	
Ahmad_Hasan_Dani	1	0	0	0	0	1	0	0	0	0	
Eric_Allin_Cornell	0	0	1	1	0	0	0	0	0	0	
James_Callaghan	1	0	0	0	0	0	0	0	0	0	
Seth_Lloyd	0	0	1	0	0	0	0	0	1	0	
Robert_C._Merton	1	0	0	0	0	0	0	0	0	0	
Richard_Taylor_(mathematician)	0	0	0	1	0	0	0	0	0	0	
Philip_Burton_Moon	0	0	1	0	0	0	0	0	0	0	
Robin_Dunbar	1	1	0	0	0	1	1	0	0	0	
Edmund_Landau	0	0	0	1	0	0	0	0	0	0	
Francis_Fukuyama	1	0	0	0	0	0	0	0	0	0	
Sam_Blakeslee	0	0	1	0	0	0	0	1	0	0	
William_Alfred_Fowler	0	0	1	0	0	0	0	0	0	0	
Tak_Wah_Mak	0	1	0	0	1	0	0	0	0	1	
James_Heckman	1	0	0	0	0	0	0	0	0	0	
Erkki_Liikanen	1	0	0	0	0	0	0	0	0	0	
Noam_Elkies	0	0	0	1	0	0	0	0	0	0	
Wolfgang_Pauli	0	0	1	1	0	0	0	0	0	0	
Fernando_Henrique_Cardoso	1	0	0	0	0	0	0	0	0	0	
Marcellin_Berthelot	0	0	0	0	1	0	0	0	0	0	
Michel_Loève	0	0	0	1	0	0	0	0	0	0	
Richard_Abegg	0	0	1	0	1	0	0	0	0	0	
Robert_Mundell	1	0	0	0	0	0	0	0	0	0	
Fred_Vargas	1	0	0	0	0	0	0	0	0	0	
Dudley_R._Herschbach	0	0	1	1	1	0	0	0	0	0	
Li_Wei_(scientist)	0	0	0	0	0	0	0	0	1	0	
Nalî	0	0	0	1	0	0	0	0	0	0	
Arthur_Gordon_Webster	0	0	1	0	0	0	0	0	0	0	
George_Lusztig	0	0	0	1	0	0	0	0	0	1	
Joachim_Wach	1	0	0	0	0	0	0	0	0	0	
Morton_Beiser	0	0	0	0	0	0	0	0	0	1	
Heinrich_Limpricht	0	0	0	0	1	0	0	0	0	0	
Jacob_Bronowski	0	1	0	1	0	0	0	0	0	0	
Thomas_Robert_Malthus	1	1	0	0	0	0	0	0	0	1	
Theodor_Escherich	0	1	0	0	0	0	0	0	0	0	
Mircea_Eliade	1	0	0	0	0	0	0	0	0	0	
Lawrence_Lessig	0	0	0	0	0	0	0	0	1	0	
Rudy_Rucker	0	0	0	1	0	0	0	0	1	0	
Theodore_Solomons	0	0	0	0	0	0	0	1	0	0	
Paul_Grice	0	0	0	0	0	1	0	0	0	0	
Heinrich_Hertz	0	0	1	0	0	0	0	0	0	0	
Ian_Stewart_(mathematician)	0	0	0	1	0	0	0	0	0	0	
John_Hicks	1	0	0	0	0	0	0	0	0	0	
Vernor_Vinge	0	0	0	1	0	0	0	0	1	1	
Thomas_A._Steitz	0	1	1	0	1	0	0	0	0	1	
Lisa_Feldman_Barrett	0	1	0	0	0	0	1	0	0	0	
John_Harsanyi	1	0	0	0	0	0	0	0	0	0	
Christoph_Gudermann	0	0	0	1	0	0	0	0	0	0	
Derek_Barton	0	0	0	0	1	0	0	0	0	0	
Richard_J._F._Day	1	0	0	0	0	0	0	0	0	0	
Paul_Lévy_(mathematician)	0	0	0	1	0	0	0	0	0	0	
Jean_Baudrillard	1	0	0	0	0	0	0	0	0	0	
Hermann_Kolbe	0	0	0	0	1	0	0	0	0	0	
Maurice_Allais	1	0	1	0	0	0	0	0	0	0	
Kurt_Gödel	0	0	0	1	0	0	0	0	0	0	
Anders_Johan_Lexell	0	0	1	1	0	0	0	0	0	0	
France_Nuyen	0	0	0	0	0	0	1	0	0	0	
Jan_Pronk	1	0	0	0	0	0	0	0	0	1	
Max_Scheler	1	0	0	0	0	0	0	0	0	0	
Robert_Keohane	1	0	0	0	0	0	0	0	0	0	
Julio_César_Turbay_Ayala	1	0	0	0	0	0	0	0	0	0	
John_Moffat_(physicist)	0	0	1	0	0	0	0	0	0	0	
Nick_Holonyak	0	0	1	0	0	0	0	0	0	1	
Georges_Bataille	1	0	0	0	0	0	0	0	0	0	
Franz_Oppenheimer	1	0	0	0	0	0	0	0	0	0	
Seymour_Papert	0	0	0	1	0	0	1	0	1	1	
Tjalling_Koopmans	1	0	1	1	0	0	0	0	0	0	
James_Lindsay,_26th_Earl_of_Crawford	0	0	1	0	0	0	0	0	0	0	
Marston_Morse	0	0	0	1	0	0	0	0	0	0	
Ludwig_Feuerbach	1	0	0	0	0	0	0	0	0	0	
Moses_Mendelssohn	0	0	0	0	0	1	0	0	0	0	
Bryan_Caplan	1	0	0	0	0	0	0	0	0	0	
Robert_Koch	0	1	0	0	1	0	0	0	0	0	
Goodluck_Jonathan	0	1	0	0	0	0	0	0	0	0	
Marta_Suplicy	0	0	0	0	0	0	1	0	0	0	
Ignacy_Mościcki	0	0	0	0	1	0	0	0	0	0	
Friedrich_Nietzsche	0	0	0	0	0	1	0	0	0	0	
Johann_Bernoulli	0	0	1	1	0	0	0	0	0	0	
Derek_Abbott	0	0	1	0	0	0	0	0	0	0	
Fritz_Machlup	1	0	0	0	0	0	0	0	0	0	
John_Stewart_Bell	0	0	1	1	0	0	0	0	0	0	
Joseph_Felsenstein	0	1	0	0	0	0	0	0	0	0	
Shokichi_Iyanaga	0	0	0	1	0	0	0	0	0	0	
Edward_Bullard	0	0	1	0	0	0	0	1	0	0	
Ferdinand_von_Richthofen	0	0	0	0	0	0	0	1	0	0	
James_Glimm	0	0	1	1	0	0	0	0	0	0	
Ágnes_Heller	1	0	0	0	0	0	0	0	0	0	
Charles_Lyell	0	0	0	0	0	0	0	1	0	0	
Martin_Gardner	0	0	0	1	0	0	0	0	0	0	
Pat_Heard	0	0	0	0	0	0	1	0	0	0	
John_Krebs,_Baron_Krebs	0	1	0	0	0	0	0	0	0	0	
George_Albert_Smith_(film_pioneer)	0	0	0	0	0	0	1	0	0	0	
Pythagoras	0	0	0	1	0	0	0	0	0	0	
Edward_Kasner	0	0	0	1	0	0	0	0	0	0	
John_Resig	0	0	0	0	0	0	0	0	1	0	
Alex_Salmond	1	0	0	0	0	0	0	0	0	0	
Phil_McGraw	0	0	0	0	0	0	1	0	0	0	
Cecilia_Payne-Gaposchkin	0	0	1	0	0	0	0	0	0	0	
Maimonides	0	0	1	0	0	0	0	0	0	0	
J._R._R._Tolkien	0	0	0	0	0	1	0	0	0	0	
Paul_R._Ehrlich	1	1	0	0	0	0	0	0	0	0	
Persi_Diaconis	0	0	0	1	0	0	0	0	0	1	
Martin_J._Taylor	0	0	0	1	0	0	0	0	0	0	
Tommaso_Padoa-Schioppa	1	0	0	0	0	0	0	0	0	0	
Neil_deGrasse_Tyson	0	0	1	0	0	0	0	0	0	0	
Robert_McNamara	1	0	0	0	0	0	0	0	0	0	
Tim_Bray	0	0	0	0	0	0	0	0	1	0	
Yakov_Sinai	0	0	1	1	0	0	0	0	0	0	
Robert_Lawson_Vaught	0	0	0	1	0	0	0	0	0	0	
Joop_den_Uyl	1	0	0	0	0	0	0	0	0	1	
Friedrich_Hund	0	0	1	0	1	0	0	0	0	0	
Lee_Teng-hui	1	0	0	0	0	0	0	0	0	0	
Herbert_Wilf	0	0	0	1	0	0	0	0	0	0	
Carolyne_Van_Vliet	0	0	1	1	0	0	0	0	0	0	
Sydney_Brenner	0	1	0	0	0	0	0	0	0	0	
Randy_Schekman	0	1	0	0	1	0	0	0	0	1	
Piero_Sraffa	1	0	0	0	0	0	0	0	0	0	
Albrecht_Dürer	0	0	0	1	0	0	0	0	0	0	
Claude_Shannon	0	0	0	1	0	0	0	0	1	0	
Vladimir_Markovnikov	0	0	0	0	1	0	0	0	0	0	
Artur_Ekert	0	0	1	0	0	0	0	0	0	0	
John_Cockcroft	0	0	1	0	0	0	0	0	0	0	
Herman_Van_Rompuy	1	0	0	0	0	0	0	0	0	0	
Eric_Temple_Bell	0	0	0	1	0	0	0	0	0	0	
Melanie_Klein	0	0	0	0	0	0	1	0	0	0	
Dusa_McDuff	0	0	0	1	0	0	0	0	0	0	
Irving_Segal	0	0	0	1	0	0	0	0	0	0	
Henri_Becquerel	0	0	1	0	1	0	0	0	0	0	
Guram_Dochanashvili	1	0	0	0	0	0	0	0	0	0	
Carl_Schmitt	1	0	0	0	0	0	0	0	0	0	
Harold_Urey	0	0	1	0	1	0	0	0	0	0	
Carlos_Bustamante	0	1	0	0	1	0	0	0	0	1	
Peter_Grünberg	0	0	1	0	0	0	0	0	0	0	
Philipp_Lenard	0	0	1	0	0	0	0	0	0	0	
Friedrich_Wöhler	0	0	0	0	1	0	0	0	0	0	
Steven_Strogatz	0	0	1	1	0	0	0	0	0	0	
Betty_Friedan	0	0	0	0	0	0	1	0	0	0	
C._N._R._Rao	0	0	1	0	1	0	0	0	0	0	
Abraham_Robinson	0	0	0	1	0	0	0	0	0	0	
Carl_Linnaeus	0	1	0	0	0	0	0	1	0	0	
Colin_Blakemore	0	1	0	0	0	0	0	0	0	0	
Edmund_Clifton_Stoner	0	0	1	0	0	0	0	0	0	0	
Marc_Kirschner	0	1	0	0	0	0	0	0	0	0	
Hans_Georg_Dehmelt	0	0	1	0	0	0	0	0	0	0	
Plato	0	0	1	0	0	0	0	0	0	0	
Johann_Georg_Christian_Lehmann	0	1	0	0	0	0	0	0	0	0	
Hermann_Irving_Schlesinger	0	0	0	0	1	0	0	0	0	0	
Stephen_Cook	0	0	0	1	0	0	0	0	1	0	
Ernest_William_Brown	0	0	1	1	0	0	0	0	0	0	
Roald_Sagdeev	0	0	1	0	0	0	0	0	0	0	
Richard_R._Schrock	0	0	0	0	1	0	0	0	0	0	
Robert_Brout	0	0	1	0	0	0	0	0	0	0	
Jane_S._Richardson	0	0	1	0	1	0	0	0	0	0	
Oliver_Smithies	0	1	0	0	1	0	0	0	0	0	
Jeffrey_Ullman	0	0	0	0	0	0	0	0	1	1	
Wilhelm_Dilthey	1	0	0	0	0	0	1	0	0	0	
Don_L._Anderson	0	0	1	0	0	0	0	1	0	1	
Howard_Florey	0	1	0	0	0	0	0	0	0	0	
Enrique_Moles_Ormella	0	0	1	0	1	0	0	0	0	0	
Lev_Landau	0	0	1	1	0	0	0	0	0	0	
Julius_von_Sachs	0	1	0	0	0	0	0	0	0	0	
Karl_Eugen_Guthe	0	0	1	0	0	0	0	0	0	0	
Brian_Kernighan	0	0	0	0	0	0	0	0	1	0	
Arnold_Sommerfeld	0	0	1	1	0	0	0	0	0	0	
Arthur_Wightman	0	0	1	1	0	0	0	0	0	0	
Hyman_Minsky	1	0	0	0	0	0	0	0	0	0	
Daniel_Nathans	0	1	0	0	1	0	0	0	0	1	
Yu_Suzuki	0	0	0	0	0	0	0	0	1	0	
Albert_W._Tucker	1	0	0	1	0	0	0	0	0	0	
Enrico_Bombieri	0	0	0	1	0	0	0	0	0	0	
James_Hendler	0	0	0	0	0	0	0	0	1	1	
Walther_Meissner	0	0	1	0	0	0	0	0	0	0	
Trygve_Haavelmo	1	0	0	1	0	0	0	0	0	0	
Endre_Szemerédi	0	0	0	1	0	0	0	0	1	0	
Abdus_Salam	0	0	1	0	0	0	0	0	0	0	
Sigmund_Freud	0	0	0	0	0	0	1	0	0	0	
Olivier_Messiaen	0	1	0	0	0	0	0	0	0	0	
Joan_Robinson	1	0	0	0	0	0	0	0	0	0	
Keith_Moffatt	0	0	1	1	0	0	0	0	0	0	
Anthony_Burgess	0	0	0	0	0	1	0	0	0	0	
Christiaan_Huygens	0	0	1	1	0	0	0	0	0	0	
James_David_Forbes	0	0	1	0	0	0	0	1	0	0	
Oscar_Zariski	0	0	0	1	0	0	0	0	0	0	
Peter_van_de_Kamp	0	0	1	0	0	0	0	0	0	0	
Chris_Adami	0	0	1	0	0	0	0	0	0	1	
Edwin_H._Land	0	0	1	0	0	0	0	0	0	0	
Jovan_Karamata	0	0	0	1	0	0	0	0	0	0	
Rudolf_Lipschitz	0	0	0	1	0	0	0	0	0	0	
Ralph_Kronig	0	0	1	0	0	0	0	0	0	0	
Jan_Peter_Balkenende	0	0	0	0	0	0	0	0	0	1	
Axel_Honneth	1	0	0	0	0	0	0	0	0	0	
Oliver_Sacks	0	1	0	0	0	0	1	0	0	1	
Frederic_M._Richards	0	1	1	0	1	0	0	0	0	0	
Herbert_Fröhlich	0	0	1	0	0	0	0	0	0	0	
Aaron_Director	1	0	0	0	0	0	0	0	0	0	
George_Stigler	1	0	0	0	0	0	0	0	0	0	
Luce_Irigaray	1	0	0	0	0	1	0	0	0	0	
Isadore_Singer	0	0	0	1	0	0	0	0	0	0	
James_Rothman	0	1	0	0	1	0	0	0	0	0	
Philip_M._Morse	0	0	1	0	0	0	0	0	0	1	
Kenneth_Appel	0	0	0	1	0	0	0	0	0	0	
Charles_K._Kao	0	0	1	0	0	0	0	0	0	0	
Allen_Newell	0	0	0	0	0	0	1	0	1	1	
Stuart_Hameroff	0	0	0	0	0	0	1	0	0	1	
Raj_Reddy	0	0	0	0	0	0	0	0	1	1	
Charles_Friedel	0	0	0	0	1	0	0	0	0	0	
Michael_Artin	0	0	0	1	0	0	0	0	0	0	
Alan_García	1	0	0	0	0	0	0	0	0	0	
Max_von_Laue	0	0	1	0	0	0	0	0	0	0	
Piero_della_Francesca	0	0	0	1	0	0	0	0	0	0	
David_Gale	1	0	0	1	0	0	0	0	0	0	
C._R._Rao	0	0	0	1	0	0	0	0	0	0	
Adolf_von_Baeyer	0	0	0	0	1	0	0	0	0	0	
Peter_G._Klein	1	0	0	0	0	0	0	0	0	0	
Alfred_North_Whitehead	0	0	1	1	0	0	0	0	0	0	
Esther_Duflo	1	0	0	0	0	0	0	0	0	0	
Stefan_Banach	0	0	0	1	0	0	0	0	0	0	
Dorian_Shainin	1	0	0	0	0	0	0	0	0	0	
Norman_Steenrod	0	0	0	1	0	0	0	0	0	0	
Ellen_Johnson_Sirleaf	1	0	0	0	0	0	0	0	0	0	
Walter_Benjamin	1	0	0	0	0	0	0	0	0	0	
Satoshi_Tajiri	0	0	0	0	0	0	0	0	1	0	
Ferdinand_Georg_Frobenius	0	0	0	1	0	0	0	0	0	0	
Albert_Jacquard	0	1	0	0	0	0	0	0	0	0	
Samuel_Johnson	0	0	0	0	0	1	0	0	0	0	
Kazimierz_Twardowski	0	0	0	0	0	0	1	0	0	0	
Anthony_Bebbington	0	1	0	0	0	0	0	0	0	0	
John_Robert_Schrieffer	0	0	1	0	0	0	0	0	0	0	
Georg_Wittig	0	0	0	0	1	0	0	0	0	0	
C._S._Lewis	0	0	0	0	0	1	0	0	0	0	
Martin_Evans	0	1	0	0	0	0	0	0	0	0	
Carolyn_R._Bertozzi	0	0	0	0	1	0	0	0	0	1	
Barbara_McClintock	0	1	0	0	0	0	0	0	0	0	
Peter_Ozsváth	0	0	0	1	0	0	0	0	0	0	
Nikolay_Basov	0	0	1	0	0	0	0	0	0	1	
Stanisław_Zaremba_(mathematician)	0	0	0	1	0	0	0	0	0	0	
Peter_Hirsch	0	0	1	0	0	0	0	0	0	0	
Rolf_Nevanlinna	0	0	0	1	0	0	0	0	0	0	
Hugo_Steinhaus	0	0	0	1	0	0	0	0	0	0	
Paul_Flory	0	0	1	0	1	0	0	0	0	0	
Pierre_Chambon	0	1	0	0	0	0	0	0	0	0	
Michael_D._Higgins	1	0	0	0	0	0	0	0	0	0	
Daniel_Pinchbeck	0	0	0	0	0	0	0	0	0	1	
Carl_Theodore_Liebermann	0	0	0	0	1	0	0	0	0	0	
G._Evelyn_Hutchinson	0	1	0	0	0	0	0	0	0	0	
Laurence_A._Rickels	0	0	0	0	0	0	1	0	0	0	
Grand_Duke_Alexander_Mikhailovich_of_Russia	1	0	0	0	0	0	0	0	0	0	
J._L._Austin	0	0	0	0	0	1	0	0	0	0	
Somnath_Bharadwaj	0	0	1	0	0	0	0	0	0	0	
Arthur_Eddington	0	0	1	0	0	0	0	0	0	0	
Bertram_Fraser-Reid	0	0	0	0	1	0	0	0	0	0	
Francis_Crick	0	1	1	0	1	0	0	0	0	1	
Richard_Courant	0	0	0	1	0	0	0	0	0	0	
Renato_Dulbecco	0	1	0	0	0	0	0	0	0	0	
Robert_Trivers	0	1	0	0	0	0	1	0	0	0	
Auguste_Comte	1	0	0	1	0	0	0	0	0	0	
Noreen_Murray	0	1	0	0	0	0	0	0	0	0	
Harold_Hotelling	1	0	0	1	0	0	0	0	0	1	
Hugh_Bradner	0	0	1	0	0	0	0	0	0	0	
Paul_Sabatier_(chemist)	0	0	0	0	1	0	0	0	0	0	
Hans_Meerwein	0	0	0	0	1	0	0	0	0	0	
Kenneth_Binmore	1	0	0	1	0	0	0	0	0	0	
Eric_Berne	0	0	0	0	0	0	1	0	0	0	
Arthur_Leonard_Schawlow	0	0	1	0	0	0	0	0	0	1	
Martin_David_Kruskal	0	0	1	1	0	0	0	0	0	0	
Nathan_Seiberg	0	0	1	0	0	0	0	0	0	0	
Samuel_L._Braunstein	0	0	1	0	0	0	0	0	0	0	
Jelle_Zijlstra	1	0	0	0	0	0	0	0	0	0	
Miron_Nicolescu	0	0	0	1	0	0	0	0	0	0	
Joseph_Campbell	1	0	0	0	0	0	0	0	0	0	
Ladislaus_Bortkiewicz	1	0	0	1	0	0	0	0	0	0	
Eugenius_Warming	0	1	0	0	0	0	0	0	0	0	
Konrad_Lorenz	0	1	0	0	0	0	0	0	0	0	
Abram_Ioffe	0	0	1	0	0	0	0	0	0	0	
George_Gamow	0	0	1	0	1	0	0	0	0	0	
Patrick_Suppes	0	0	0	0	0	0	1	0	0	0	
James_O'Shaughnessy	1	0	0	0	0	0	0	0	0	0	
Nicholas_Higham	0	0	0	1	0	0	0	0	0	1	
Behram_Kurşunoğlu	0	0	1	0	0	0	0	0	0	0	
Nathan_Rosen	0	0	1	0	0	0	0	0	0	0	
Bob_Woodward	0	0	0	0	0	0	0	0	0	1	
Manfred_von_Ardenne	0	0	1	0	0	0	0	0	0	0	
Martin_Ryle	0	0	1	0	0	0	0	0	0	0	
Alexander_Downer	1	0	0	0	0	0	0	0	0	0	
Martin_Schwarzschild	0	0	1	0	0	0	0	0	0	0	
Albert_Ernest_Kitson	0	1	0	0	0	0	0	1	0	0	
Jean-Louis_Colliot-Thélène	0	0	0	1	0	0	0	0	0	0	
John_Archibald_Wheeler	0	0	1	0	0	0	0	0	0	0	
William_Fulton_(mathematician)	0	0	0	1	0	0	0	0	0	0	
Hendrik_Wade_Bode	0	0	1	1	0	0	0	0	0	0	
Robert_Todd_Lincoln	0	0	1	0	0	0	0	0	0	0	
John_Stuart,_3rd_Earl_of_Bute	0	1	0	0	0	0	0	0	0	0	
Václav_Klaus	1	0	0	0	0	0	0	0	0	0	
Douglas_Hofstadter	0	0	0	1	0	0	0	0	1	1	
John_Hagelin	0	0	1	0	0	0	0	0	0	1	
Fan_Chung	0	0	0	1	0	0	0	0	1	0	
Merle_Tuve	0	0	1	0	0	0	0	1	0	0	
David_Attenborough	0	1	0	0	0	0	0	0	0	0	
Rodrigo_Rato	1	0	0	0	0	0	0	0	0	0	
Leonard_Kleinrock	0	0	0	0	0	0	0	0	1	0	
Joseph_Keller	0	0	0	1	0	0	0	0	0	0	
Albrecht_Kossel	0	1	0	0	1	0	0	0	0	0	
Joseph-Louis_Lagrange	0	0	1	1	0	0	0	0	0	0	
Frederick_II,_Holy_Roman_Emperor	0	1	0	0	0	0	0	0	0	0	
Timothy_Leary	0	0	0	0	0	0	1	0	0	1	
Ronald_Fedkiw	0	0	0	1	0	0	0	0	0	0	
Alan_Turing	0	1	0	1	0	0	0	0	1	1	
Raymond_Aron	1	0	0	0	0	0	0	0	0	0	
W._D._Hamilton	0	1	0	0	0	0	1	0	0	0	
Hermann_Paasche	1	0	0	1	0	0	0	0	0	0	
Karl_Gustav_Jöreskog	0	0	0	1	0	0	0	0	0	0	
Brian_May	0	0	1	0	0	0	0	0	0	0	
John_Hopcroft	0	0	0	0	0	0	0	0	1	0	
Roderick_T._Long	1	0	0	0	0	0	0	0	0	0	
Jean_Bourgain	0	0	0	1	0	0	0	0	0	1	
Samar_Mubarakmand	0	0	1	0	0	0	0	0	0	0	
Elliott_Waters_Montroll	0	0	1	1	0	0	0	0	0	0	
Cécile_Vogt-Mugnier	0	1	0	0	0	0	0	0	0	0	
Richard_J._Lipton	0	0	0	1	0	0	0	0	1	0	
Emory_Leon_Chaffee	0	0	1	0	0	0	0	0	0	0	
Tetsuya_Mizuguchi	0	0	0	0	0	0	0	0	1	0	
Erol_Gelenbe	0	0	0	1	0	0	0	0	1	1	
Walter_Munk	0	0	0	0	0	0	0	1	0	0	
Lewis_Fry_Richardson	0	0	1	1	0	0	1	0	0	0	
Robert_F._Engle	1	0	0	0	0	0	0	0	0	0	
Robert_May,_Baron_May_of_Oxford	0	1	1	0	0	0	0	0	0	0	
David_Gill_(astronomer)	0	0	1	0	0	0	0	0	0	0	
Willis_Lamb	0	0	1	0	0	0	0	0	0	1	
Zora_Neale_Hurston	1	0	0	0	0	0	0	0	0	0	
Thomas_Nagel	0	0	0	0	0	0	0	0	0	1	
Max_Hirsch_(economist)	1	0	0	0	0	0	0	0	0	0	
Albert_Szent-Györgyi	0	1	0	0	1	0	0	0	0	0	
J._B._S._Haldane	0	1	0	0	1	0	0	0	0	0	
James_Lighthill	0	0	0	1	0	0	0	0	0	0	
Samuel_P._Huntington	1	0	0	0	0	0	0	0	0	0	
John_Bidwell	0	0	0	0	0	0	0	1	0	0	
Percy_Williams_Bridgman	0	0	1	0	0	0	0	0	0	0	
Will_Hay	0	0	1	0	0	0	0	0	0	0	
Steven_Erikson	1	0	0	0	0	0	0	0	0	0	
Louis_Mountbatten,_1st_Earl_Mountbatten_of_Burma	0	0	0	0	0	0	0	0	1	0	
Andrey_Kolmogorov	0	0	1	1	0	0	0	0	0	0	
Hideki_Yukawa	0	0	1	0	0	0	0	0	0	0	
Robert_Andrews_Millikan	0	0	1	0	0	0	0	0	0	0	
William_J._LeVeque	0	0	0	1	0	0	0	0	0	0	
Clive_Granger	1	0	0	1	0	0	0	0	0	0	
Andrew_Wiles	0	0	0	1	0	0	0	0	0	0	
Jan_Tinbergen	1	0	0	0	0	0	0	0	0	0	
John_Friedlander	0	0	0	1	0	0	0	0	0	0	
John_Clive_Ward	0	0	1	0	0	0	0	0	0	0	
Pier_Paolo_Pasolini	0	0	0	0	0	1	0	0	0	0	
Ryōji_Noyori	0	0	0	0	1	0	0	0	0	0	
Marshall_Warren_Nirenberg	0	1	0	0	1	0	0	0	0	0	
Herbert_Marcuse	1	0	0	0	0	0	0	0	0	0	
Elias_Canetti	0	0	0	0	1	0	1	0	0	0	
Marion_Cotillard	0	1	0	0	0	0	0	0	0	0	
Carl_Menger	1	0	0	0	0	0	0	0	0	0	
Lipót_Fejér	0	0	0	1	0	0	0	0	0	0	
Woodrow_Wilson	1	0	0	0	0	0	0	0	0	0	
René_Descartes	0	0	1	1	0	0	0	0	0	1	
Arseniy_Yatsenyuk	1	0	0	0	0	0	0	0	0	0	
Leroy_Cronin	0	0	0	0	1	0	0	0	0	0	
Mort_Sahl	0	0	0	0	0	0	0	0	0	1	
Jonathan_Kellerman	1	0	0	0	0	0	1	0	0	0	
Clifford_Taubes	0	0	0	1	0	0	0	0	0	0	
Pafnuty_Chebyshev	0	0	0	1	0	0	0	0	0	0	
Griffith_C._Evans	0	0	0	1	0	0	0	0	0	0	
Karen_Uhlenbeck	0	0	0	1	0	0	0	0	0	0	
Andrei_Shleifer	1	0	0	0	0	0	0	0	0	0	
Edwin_Hubble	0	0	1	0	0	0	0	0	0	0	
Marshall_Rosenbluth	0	0	1	0	0	0	0	0	0	0	
Rose_Friedman	1	0	0	0	0	0	0	0	0	0	
Fulvio_Melia	0	0	1	0	0	0	0	0	0	0	
Coching_Chu	0	0	0	0	0	0	0	1	0	0	
Charles_Taylor_(philosopher)	1	0	0	0	0	0	0	0	0	0	
G._W._Pierce	0	0	1	0	0	0	0	0	0	0	
Christine_Lagarde	1	0	0	0	0	0	0	0	0	0	
Joseph_Needham	0	0	0	0	1	0	0	0	0	0	
Maurice_Goldhaber	0	0	1	0	0	0	0	0	0	0	
Rebecca_Grinter	1	0	0	0	0	0	0	0	1	1	
Michael_Hemmingson	1	0	0	0	0	0	0	0	0	0	
Ernst_Mayr	0	1	0	1	0	0	0	0	0	0	
Henry_Briggs_(mathematician)	0	0	0	1	0	0	0	0	0	0	
Joseph_L._Walsh	0	0	0	1	0	0	0	0	0	0	
Sebastian_Thrun	0	0	0	0	0	0	0	0	1	1	
Elias_Porter	0	0	0	0	0	0	1	0	0	0	
John_Pendry	0	0	1	0	0	0	0	0	0	0	
Richard_Feynman	0	0	1	0	0	0	0	0	0	0	
Willard_Van_Orman_Quine	0	0	0	0	0	1	0	0	0	0	
Niels_Bohr	0	0	1	0	1	0	0	0	0	0	
Edwin_E._Moise	0	0	0	1	0	0	0	0	0	0	
Peter_Sarnak	0	0	1	1	0	0	0	0	0	1	
Henry_Adams	1	0	0	1	0	0	0	0	0	0	
Melvin_Hochster	0	0	0	1	0	0	0	0	0	0	
Banū_Mūsā	0	0	1	1	0	0	0	0	0	0	
Joseph_Larmor	0	0	1	1	0	0	0	0	0	0	
Harald_Cramér	0	0	0	1	0	0	0	0	0	0	
Richard_Rado	0	0	0	1	0	0	0	0	0	0	
Sheldon_Wolin	1	0	0	0	0	0	0	0	0	0	
Ernesto_Laclau	1	0	0	0	0	0	0	0	0	0	
John_Foster_Dulles	1	0	0	0	0	0	0	0	0	0	
Pál_Turán	0	0	0	1	0	0	0	0	0	0	
Kip_Thorne	0	0	1	0	0	0	0	0	0	0	
Michel_Foucault	1	0	0	0	0	0	0	0	0	0	
Jacques_Lacan	0	0	0	0	0	1	1	0	0	0	
Walter_Gordon_(physicist)	0	0	1	0	0	0	0	0	0	0	
Fred_Thompson	0	0	0	0	0	0	0	0	0	1	
Marco_Minghetti	1	0	0	0	0	0	0	0	0	0	
Wernher_von_Braun	0	0	1	0	0	0	0	0	0	0	
Li_Keqiang	1	0	0	0	0	0	0	0	0	0	
Donald_Knuth	0	0	0	1	0	0	0	0	1	0	
Mihailo_Petrović	0	0	0	1	0	0	0	0	0	0	
Laimdota_Straujuma	1	0	1	1	0	0	0	0	0	0	
Michael_Walzer	1	0	0	0	0	0	0	0	0	0	
Edmund_Leach	1	0	0	0	0	0	0	0	0	0	
Mikhail_Tugan-Baranovsky	1	0	0	0	0	0	0	0	0	0	
Les_Aspin	1	0	0	0	0	0	0	0	0	0	
Amartya_Sen	1	0	0	0	0	0	0	0	0	0	
Neal_E._Miller	0	1	0	0	0	0	1	0	0	0	
Nassim_Nicholas_Taleb	1	0	0	0	0	0	0	0	0	0	
Damien_Leith	0	0	0	0	1	0	0	0	0	0	
Eli_Yablonovitch	0	0	1	0	0	0	0	0	0	0	
George_S._Hammond	0	0	0	0	1	0	0	0	0	0	
Rosalyn_Sussman_Yalow	0	0	1	0	0	0	0	0	0	0	
Torsten_Wiesel	0	1	0	0	0	0	0	0	0	0	
Rafael_Caldera	1	0	0	0	0	0	0	0	0	0	
August_Kekulé	0	0	0	0	1	0	0	0	0	0	
Haïm_Brezis	0	0	0	1	0	0	0	0	0	1	
Helmut_Hasse	0	0	0	1	0	0	0	0	0	0	
Julius_Plücker	0	0	1	1	0	0	0	0	0	0	
Hans_Fischer	0	0	0	0	1	0	0	0	0	0	
Johannes_Conrad	1	0	0	0	0	0	0	0	0	0	
Frederick_J._Almgren,_Jr.	0	0	0	1	0	0	0	0	0	0	
Albert_Schweitzer	0	0	1	0	0	0	0	0	0	0	
Luis_Walter_Alvarez	0	0	1	0	0	0	0	0	0	0	
August_Kundt	0	0	1	0	0	0	0	0	0	0	
Elizabeth_Warren	1	0	0	0	0	0	0	0	0	0	
Herbert_Blumer	1	0	0	0	0	0	1	0	0	0	
Marshall_Hall_(mathematician)	0	0	0	1	0	0	0	0	0	0	
Joseph_Henry_Collins	0	0	0	0	0	0	0	1	0	0	
Mildred_Dresselhaus	0	0	1	0	0	0	0	0	0	0	
Félix_Ravaisson-Mollien	1	0	0	0	0	0	0	0	0	0	
Joseph_Schumpeter	1	0	0	0	0	0	0	0	0	0	
David_George_Kendall	0	0	0	1	0	0	0	0	0	0	
Hermann_Ebbinghaus	0	0	0	0	0	0	1	0	0	0	
Franco_Modigliani	1	0	0	0	0	0	0	0	0	0	
Giovanni_Arrighi	1	0	0	0	0	0	0	0	0	0	
George_E._P._Box	0	0	0	1	0	0	0	0	0	1	
Ibn_Taymiyyah	1	0	0	0	0	0	0	0	0	0	
Lisa_Randall	0	0	1	0	0	0	0	0	0	0	
Frank_Wilczek	0	0	1	1	0	0	0	0	0	0	
Richard_Kahn,_Baron_Kahn	1	0	0	0	0	0	0	0	0	0	
Hannah_Arendt	1	0	0	0	0	0	0	0	0	0	
Barry_Mazur	0	0	0	1	0	0	0	0	0	0	
Mihajlo_Pupin	0	0	1	1	0	0	0	0	0	0	
W._Keith_Edwards	0	0	0	0	0	0	0	0	1	1	
Thomas_Edison	0	0	1	0	0	0	0	0	0	0	
John_H._Coates	0	0	0	1	0	0	0	0	0	0	
J._Robert_Oppenheimer	0	0	1	0	0	0	0	0	0	0	
François_Quesnay	1	0	0	0	0	0	0	0	0	0	
Gabriel_Lippmann	0	0	1	0	0	0	0	0	0	0	
Neil_Abercrombie	1	0	0	0	0	0	0	0	0	0	
Homi_J._Bhabha	0	0	1	0	0	0	0	0	0	0	
Richard_Friend	0	0	1	0	0	0	0	0	0	0	
Szolem_Mandelbrojt	0	0	0	1	0	0	0	0	0	0	
John_Bardeen	0	0	1	0	0	0	0	0	0	0	
Ian_Foster	0	0	0	0	0	0	0	0	1	1	
Alexander_Yakovlev_(Russian_politician)	1	0	0	0	0	0	0	0	0	0	
Gregory_Abowd	0	0	0	0	0	0	0	0	1	1	
Anne_Wojcicki	0	1	0	0	0	0	0	0	0	0	
John_Wishart_(statistician)	0	0	0	1	0	0	0	0	0	0	
Roger_Penrose	0	0	1	1	0	0	0	0	0	1	
Gaston_Julia	0	0	0	1	0	0	0	0	0	0	
Radosław_Sikorski	1	0	0	0	0	0	0	0	0	0	
Daniel_Gorenstein	0	0	0	1	0	0	0	0	0	0	
Edmund_Hlawka	0	0	0	1	0	0	0	0	0	0	
Karl_Pearson	0	0	0	1	0	0	0	0	0	0	
Michael_Freedman	0	0	0	1	0	0	0	0	0	0	
Simon_White	0	0	1	0	0	0	0	0	0	0	
Shaukat_Aziz	1	0	0	0	0	0	0	0	0	0	
Wilhelm_Reich	0	0	1	0	0	0	1	0	0	0	
Nicolae_Iorga	1	0	0	0	0	0	0	0	0	0	
Greg_Mankiw	1	0	0	0	0	0	0	0	0	0	
Zeno_of_Elea	0	0	0	1	0	0	0	0	0	0	
Arthur_Laffer	1	0	0	0	0	0	0	0	0	0	
Thomas_Schelling	1	0	0	0	0	0	0	0	0	0	
Oliver_Stone	0	0	0	0	0	0	0	0	0	1	
Henri_Victor_Regnault	0	0	1	0	1	0	0	0	0	0	
Bingu_wa_Mutharika	1	0	0	0	0	0	0	0	0	0	
John_Howard_Northrop	0	0	1	0	1	0	0	0	0	0	
Benjamin_Graham	1	0	0	0	0	0	0	0	0	0	
Mitchel_Resnick	0	0	1	0	0	0	0	0	1	0	
Al-Suhayli	0	0	0	0	0	1	0	0	0	0	
László_Babai	0	0	0	1	0	0	0	0	1	0	
Patrick_O._Brown	0	1	0	0	1	0	0	0	0	1	
Neil_Campbell_(scientist)	0	1	0	0	0	0	0	0	0	0	
Rolf_Widerøe	0	0	1	0	0	0	0	0	0	0	
Abraham_Maslow	1	0	0	0	0	0	1	0	0	0	
James_Randi	0	0	0	0	0	0	0	0	0	1	
Peter_Medawar	0	1	0	0	0	0	0	0	0	0	
Johannes_Stark	0	0	1	0	0	0	0	0	0	0	
Giuseppe_Pella	1	0	0	0	0	0	0	0	0	0	
Donald_J._Cram	0	0	0	0	1	0	0	0	0	0	
Peer_Steinbrück	1	0	0	0	0	0	0	0	0	0	
Pierre-Joseph_Proudhon	1	0	0	0	0	0	0	0	0	0	
Lev_Sternberg	1	0	0	0	0	0	0	0	0	0	
Ernst_G._Straus	0	0	0	1	0	0	0	0	0	0	
Dian_Fossey	1	1	0	0	0	0	0	0	0	0	
Joan_A._Steitz	0	1	0	0	1	0	0	0	0	1	
Arsène_Wenger	1	0	0	0	0	0	0	0	0	0	
André_Rouvoet	0	0	0	0	0	0	0	0	0	1	
Rudi_Dornbusch	1	0	0	0	0	0	0	0	0	0	
Wilhelm_Wien	0	0	1	0	0	0	0	0	0	0	
Eugen_Bleuler	0	0	0	0	0	0	0	0	0	1	
Cassius_Jackson_Keyser	0	0	0	1	0	0	0	0	0	0	
Fred_Brooks	0	0	0	1	0	0	0	0	1	0	
Andrey_Markov	0	0	0	1	0	0	0	0	0	0	
Charles_Scott_Sherrington	0	1	0	0	0	0	0	0	0	0	
John_Rawls	1	0	0	0	0	0	0	0	0	0	
Yōichi_Masuzoe	1	0	0	0	0	0	0	0	0	0	
Sergei_Sobolev	0	0	0	1	0	0	0	0	0	0	
John_Tukey	0	0	0	1	0	0	0	0	1	0	
E._C._George_Sudarshan	0	0	1	0	0	0	0	0	0	0	
Emanuel_Parzen	0	0	0	1	0	0	0	0	0	0	
Benjamin_Peirce	0	0	1	1	0	0	0	0	0	0	
Brian_D._Ripley	0	0	0	1	0	0	0	0	0	1	
Hermann_Schwarz	0	0	0	1	0	0	0	0	0	0	
Luigi_Bianchi	0	0	0	1	0	0	0	0	0	0	
Linus_Pauling	0	0	1	0	1	0	0	0	0	0	
Brian_Greene	0	0	1	0	0	0	0	0	0	0	
Elena_Salgado	1	0	0	0	0	0	0	0	0	0	
Karl_Dietrich_Bracher	1	0	0	0	0	0	0	0	0	0	
Bob_Kahn	0	0	0	0	0	0	0	0	1	0	
Alfredo_Pérez_Rubalcaba	0	0	0	0	1	0	0	0	0	0	
Robert_S._Barton	0	0	0	0	0	0	0	0	1	0	
Arthur_Koestler	0	0	0	0	0	0	1	0	0	1	
Norbert_Elias	1	0	0	0	0	0	0	0	0	0	
A._James_Gregor	1	0	0	0	0	0	0	0	0	0	
Satyendra_Nath_Bose	0	0	1	1	0	0	0	0	0	0	
K._G._Ramanathan	0	0	0	1	0	0	0	0	0	0	
Brian_Schmidt	0	0	1	0	0	0	0	0	0	0	
Nathan_Jacobson	0	0	0	1	0	0	0	0	0	0	
Eugenio_Calabi	0	0	0	1	0	0	0	0	0	0	
Karl_Schiller	1	0	0	0	0	0	0	0	0	0	
Edward_C._Prescott	1	0	0	0	0	0	0	0	0	0	
Eugen_Böhm_von_Bawerk	1	0	0	0	0	0	0	0	0	0	
David_Cox_(statistician)	0	0	0	1	0	0	0	0	0	1	
Karl_Friedrich_Bonhoeffer	0	0	0	0	1	0	0	0	0	0	
Bruce_L._Benson	1	0	0	0	0	0	0	0	0	0	
Andrew_Huxley	0	1	1	0	0	0	0	0	0	0	
David_Baltimore	0	1	0	0	0	0	0	0	0	0	
Eric_Maskin	1	0	0	0	0	0	0	0	0	0	
Peter_S._Fosl	1	0	0	0	0	0	0	0	0	0	
George_Biddell_Airy	0	0	1	1	0	0	0	0	0	0	
Seymour_Benzer	0	1	1	0	0	0	0	0	0	0	
Georg_Balthasar_Metzger	0	1	0	0	0	0	0	0	0	0	
Veronica_van_Heyningen	0	1	0	0	0	0	0	0	0	0	
John_Cornforth	0	0	0	0	1	0	0	0	0	0	
Paul_Painlevé	0	0	0	1	0	0	0	0	0	0	
Jean-Victor_Poncelet	0	0	1	1	0	0	0	0	0	0	
Serge_Haroche	0	0	1	0	0	0	0	0	0	0	
David_J._C._MacKay	0	0	1	0	0	0	0	0	1	0	
Kenneth_G._Wilson	0	0	1	0	0	0	0	0	0	0	
Éamon_de_Valera	0	0	0	1	0	0	0	0	0	0	
David_Suzuki	0	1	0	0	0	0	0	0	0	0	
Christopher_Kelk_Ingold	0	0	0	0	1	0	0	0	0	0	
Hans_Bethe	0	0	1	0	0	0	0	0	0	0	
Dries_van_Agt	0	0	0	0	0	0	0	0	0	1	
Curtis_T._McMullen	0	0	0	1	0	0	0	0	0	0	
Henri_Cartan	0	0	0	1	0	0	0	0	0	0	
Luigi_Einaudi	1	0	0	0	0	0	0	0	0	0	
Michel_Chasles	0	0	1	1	0	0	0	0	0	0	
Walter_Gilbert	0	1	1	0	1	0	0	0	0	0	
Joseph_Dalton_Hooker	0	1	0	0	0	0	0	0	0	0	
George_Soros	1	0	0	0	0	0	0	0	0	0	
Dirk_Jan_Struik	0	0	0	1	0	0	0	0	0	0	
Clarence_Ellis_(computer_scientist)	0	0	0	0	0	0	0	0	1	0	
Johann_Heinrich_Lambert	0	0	1	1	1	0	0	0	0	0	
Jean_Berko_Gleason	0	0	0	0	0	1	1	0	0	0	
William_Galston	1	0	0	0	0	0	0	0	0	0	
Sho-Chieh_Tsiang	1	0	0	0	0	0	0	0	0	0	
Ilya_Piatetski-Shapiro	0	0	0	1	0	0	0	0	0	0	
Eduard_Bomhoff	1	0	0	0	0	0	0	0	0	0	
Nicholas_B._Suntzeff	0	0	1	0	0	0	0	0	0	0	
Paul_Magnette	1	0	0	0	0	0	0	0	0	0	
Harold_Williams_(geologist)	0	0	0	0	0	0	0	1	0	0	
Jacob_Bekenstein	0	0	1	0	0	0	0	0	0	0	
Martin_Lewis_Perl	0	0	1	0	0	0	0	0	0	0	
Judith_Butler	1	0	0	0	0	0	0	0	0	0	
Linus_Torvalds	0	0	0	0	0	0	0	0	1	0	
Albert_Eschenmoser	0	0	0	0	1	0	0	0	0	0	
Robert_Nozick	1	0	0	0	0	0	0	0	0	0	
Daniel_Kleppner	0	0	1	0	0	0	0	0	0	0	
Jerry_Pournelle	1	0	0	0	0	0	0	0	0	0	
Elias_M._Stein	0	0	0	1	0	0	0	0	0	1	
John_Backus	0	0	0	1	0	0	0	0	1	1	
Robert_F._Furchgott	0	0	0	0	1	0	0	0	0	0	
Héctor_García-Molina	0	0	0	0	0	0	0	0	1	1	
John_G._Thompson	0	0	0	1	0	0	0	0	0	0	
Hassler_Whitney	0	0	0	1	0	0	0	0	0	0	
Naoto_Kan	0	0	1	0	0	0	0	0	0	0	
Saša_Radulović	1	0	0	0	0	0	0	0	0	0	
Nicolaas_Pierson	1	0	0	0	0	0	0	0	0	0	
César_Milstein	0	1	0	0	1	0	0	0	0	0	
Olli_Rehn	1	0	0	0	0	0	0	0	0	0	
V._K._Krishna_Menon	1	0	0	0	0	0	0	0	0	0	
John_M._Ball	0	0	0	1	0	0	0	0	0	1	
Karl_Ziegler	0	0	0	0	1	0	0	0	0	0	
Carl_Woese	0	1	0	0	0	0	0	0	0	0	
Randy_Pausch	0	0	0	0	0	0	0	0	1	0	
Ronald_Fisher	0	1	1	1	0	0	0	0	0	0	
Johann_Radon	0	0	0	1	0	0	0	0	0	0	
Alexis_de_Tocqueville	1	0	0	0	0	0	0	0	0	0	
Max_Planck	0	0	1	1	0	0	0	0	0	0	
Ira_Remsen	0	0	0	0	1	0	0	0	0	0	
Richard_J._Roberts	0	1	0	0	1	0	0	0	0	0	
Joseph_Bernstein	0	0	0	1	0	0	0	0	0	0	
Keith_Devlin	0	0	0	1	0	0	0	0	0	0	
W._E._B._Du_Bois	1	0	0	0	0	0	0	0	0	0	
Erwin_Kreyszig	0	0	0	1	0	0	0	0	0	0	
John_Henry_Poynting	0	0	1	0	0	0	0	0	0	0	
Henry_DeWolf_Smyth	0	0	1	0	0	0	0	0	0	0	
Prasanta_Chandra_Mahalanobis	1	0	1	1	0	0	0	0	0	0	
Nicolaas_Bloembergen	0	0	1	1	0	0	0	0	0	0	
Sergei_Winogradsky	0	1	0	0	1	0	0	0	0	0	
Lyman_Spitzer	0	0	1	0	0	0	0	0	0	0	
Gene_Sharp	1	0	0	0	0	0	0	0	0	0	
William_Penney,_Baron_Penney	0	0	1	1	0	0	0	0	0	0	
Claude_Lévi-Strauss	1	0	0	0	0	1	0	0	0	0	
Otto_Diels	0	0	0	0	1	0	0	0	0	0	
Werner_Vogels	0	0	0	0	0	0	0	0	1	0	
Umesh_Vazirani	0	0	0	1	0	0	0	0	1	0	
John_Ambrose_Fleming	0	0	1	0	0	0	0	0	0	0	
John_William_Strutt,_3rd_Baron_Rayleigh	0	0	1	0	0	0	1	0	0	0	
Jainendra_K._Jain	0	0	1	0	0	0	0	0	0	0	
Roger_Guillemin	0	1	0	0	1	0	0	0	0	0	
Edward_Abramowski	1	0	0	0	0	0	1	0	0	0	
John_Eccles_(neurophysiologist)	0	1	0	0	0	0	0	0	0	1	
Richard_Cantillon	1	0	0	0	0	0	0	0	0	0	
John_Beddington	0	1	0	0	0	0	0	0	0	0	
Siméon_Denis_Poisson	0	0	1	1	0	0	0	0	0	0	
Marshall_Harvey_Stone	0	0	0	1	0	0	0	0	0	0	
Pierre_Duhem	0	0	1	1	1	0	0	0	0	0	
Nikolay_Semyonov	0	0	1	0	1	0	0	0	0	0	
Edgar_Bright_Wilson	0	0	0	0	1	0	0	0	0	0	
Moritz_von_Jacobi	0	0	1	0	0	0	0	0	0	0	
Carl_Rogers	0	0	0	0	0	0	1	0	0	0	
Leon_M._Lederman	0	0	1	1	0	0	0	0	0	0	
Humphry_Davy	0	0	1	0	1	0	0	0	0	0	
John_McCarthy_(computer_scientist)	0	0	0	1	0	0	0	0	1	1	
Marcus_du_Sautoy	0	0	0	1	0	0	0	0	0	0	
Paul_Bernays	0	0	0	1	0	0	0	0	0	0	
Melvin_Calvin	0	1	0	0	1	0	0	0	0	1	
Florian_Znaniecki	1	0	0	0	0	0	0	0	0	0	
Roger_Joseph_Boscovich	0	0	1	1	0	0	0	0	0	0	
Steven_Levitt	1	0	0	0	0	0	0	0	0	0	
Jacob_Volhard	0	0	0	0	1	0	0	0	0	0	
Margaret_Thatcher	0	0	0	0	1	0	0	0	0	0	
Walker_Percy	0	0	0	0	0	1	0	0	0	0	
Neil_Bartlett_(chemist)	0	0	0	0	1	0	0	0	0	0	
Federico_Capasso	0	0	1	0	0	0	0	0	0	0	
Augustus_De_Morgan	0	0	0	1	0	0	1	0	0	0	
John_Milnor	0	0	0	1	0	0	0	0	0	0	
Kenneth_Arrow	1	0	0	0	0	0	0	0	0	0	
Heinz_Pagels	0	0	1	0	0	0	0	0	0	0	
André-Louis_Debierne	0	0	1	0	1	0	0	0	0	0	
Richard_D._Wolff	1	0	0	0	0	0	0	0	0	0	
C._F._Powell	0	0	1	0	0	0	0	1	0	0	
Lauriston_Sharp	1	0	0	0	0	0	0	0	0	0	
Alexander_Grothendieck	0	0	0	1	0	0	0	0	0	0	
Stanislaw_Ulam	0	0	1	1	0	0	0	0	0	0	
Vsevolod_Klechkovsky	0	0	1	0	1	0	0	0	0	0	
Salvador_Luria	0	1	0	0	0	0	0	0	0	0	
Paul_Zindel	0	0	0	0	1	0	0	0	0	0	
Sean_M._Carroll	0	0	1	0	0	0	0	0	0	0	
Sultan_Bashiruddin_Mahmood	0	0	1	0	0	0	0	0	0	0	
James_Bryant_Conant	0	0	0	0	1	0	0	0	0	0	
Leo_Kadanoff	0	0	1	1	0	0	0	0	0	0	
Steve_Hanke	1	0	0	0	0	0	0	0	0	0	
Duarte_Leite	0	0	0	1	0	0	0	0	0	0	
Claude_Cohen-Tannoudji	0	0	1	0	0	0	0	0	0	1	
Scott_Atran	1	0	0	0	0	0	0	0	0	0	
Thomas_J._Sargent	1	0	0	0	0	0	0	0	0	0	
Ernst_Kummer	0	0	0	1	0	0	0	0	0	0	
Sebastián_Piñera	1	0	0	0	0	0	0	0	0	0	
Francesco_Severi	0	0	0	1	0	0	0	0	0	0	
France_A._Córdova	0	0	1	0	0	0	0	0	0	0	
Herbert_S._Gutowsky	0	0	0	0	1	0	0	0	0	0	
Adrian_Carmack	0	0	0	0	0	0	0	0	1	0	
Proclus	0	0	0	1	0	1	0	0	0	0	
Roald_Hoffmann	0	0	0	0	1	0	0	0	0	0	
Philip_Zimbardo	0	0	0	0	0	0	1	0	0	0	
Jacques_Delors	1	0	0	0	0	0	0	0	0	0	
Karl_Landsteiner	0	1	0	0	0	0	0	0	0	0	
Atle_Selberg	0	0	0	1	0	0	0	0	0	0	
William_Whewell	1	0	1	1	0	0	0	1	0	0	
James_Ivory_(mathematician)	0	0	1	1	0	0	0	0	0	0	
Chris_Heyde	0	0	0	1	0	0	0	0	0	0	
Pranab_Mukherjee	1	0	0	0	0	0	0	0	0	0	
Svante_Arrhenius	0	0	1	0	1	0	0	0	0	0	
Franco_Basaglia	1	0	0	0	0	0	0	0	0	0	
Colin_Wilson	0	0	0	0	0	0	1	0	0	0	
Oswald_Spengler	1	0	0	1	0	0	0	0	0	0	
Neelie_Kroes	0	0	0	0	0	0	0	0	0	1	
Mario_Capecchi	0	1	0	0	0	0	0	0	0	1	
Ada_Yonath	0	1	0	0	1	0	0	0	0	0	
Arthur_Cayley	0	0	0	1	0	0	0	0	0	0	
Ernest_Everett_Just	0	1	0	0	0	0	0	0	0	0	
John_Lennard-Jones	0	0	1	1	1	0	0	0	0	0	
Tom_Lantos	1	0	0	0	0	0	0	0	0	0	
Edward_Routh	0	0	0	1	0	0	0	0	0	0	
Sam_Edwards_(physicist)	0	0	1	0	0	0	0	0	0	0	
Owen_Willans_Richardson	0	0	1	0	0	0	0	0	0	0	
John_Sulston	0	1	0	0	0	0	0	0	0	0	
John_Randall_(physicist)	0	0	1	0	0	0	0	0	0	0	
James_Mirrlees	1	0	0	0	0	0	0	0	0	0	
Lars_Ahlfors	0	0	0	1	0	0	0	0	0	0	
Steven_Salzberg	0	1	0	0	0	0	0	0	1	1	
Edmund_Jaeger	0	1	0	0	0	0	0	0	0	0	
Abraham_Wald	1	0	0	1	0	0	0	0	0	1	
Paul_Feyerabend	1	0	0	0	0	0	0	0	0	0	
Terence_Tao	0	0	0	1	0	0	0	0	0	0	
Alfred_Pringsheim	0	0	0	1	0	0	0	0	0	0	
Mikhail_Lavrentyev	0	0	1	1	0	0	0	0	0	0	
Elliott_H._Lieb	0	0	1	1	0	0	0	0	0	0	
Charles_Sanders_Peirce	0	0	0	1	0	1	0	0	0	0	
Paul_Samuelson	1	0	0	0	0	0	0	0	0	0	
August_Leskien	0	0	0	0	0	1	0	0	0	0	
Otto_Rank	0	0	0	0	0	0	1	0	0	0	
Antonie_Pannekoek	1	0	1	0	0	0	0	0	0	0	
James_McKeen_Cattell	0	0	0	0	0	0	1	0	0	1	
Phillip_Allen_Sharp	0	1	0	0	1	0	0	0	0	0	
Colin_Clark_(economist)	1	0	0	1	0	0	0	0	0	0	
Edward_Bagnall_Poulton	0	1	0	0	0	0	0	0	0	0	
Masatoshi_Koshiba	0	0	1	0	0	0	0	0	0	0	
Béla_Bollobás	0	0	0	1	0	0	0	0	0	0	
Andrey_Nikolayevich_Tikhonov	0	0	0	1	0	0	0	1	0	0	
Pierre-Louis_Lions	0	0	0	1	0	0	0	0	0	1	
Sewall_Wright	0	1	0	1	0	0	0	0	0	0	
Max_Horkheimer	1	0	0	0	0	0	0	0	0	0	
Joseph_Rotblat	0	0	1	0	0	0	0	0	0	1	
Jacob_Wolfowitz	0	0	0	1	0	0	0	0	0	0	
Chester_Barnard	1	0	0	0	0	0	0	0	0	0	
Richard_Dalitz	0	0	1	0	0	0	0	0	0	0	
Maryam_Mirzakhani	0	0	0	1	0	0	0	0	0	0	
Ra'ana_Liaquat_Ali_Khan	1	0	0	0	0	0	0	0	0	0	
Alvin_Hansen	1	0	0	0	0	0	0	0	0	0	
Arthur_Louis_Day	0	0	1	0	0	0	0	1	0	0	
Walter_H._Schottky	0	0	1	0	0	0	0	0	0	0	
Silvio_Micali	0	0	0	0	0	0	0	0	1	0	
Fredrik_Reinfeldt	1	0	0	0	0	0	0	0	0	0	
Francis_Birch_(geophysicist)	0	0	1	0	0	0	0	1	0	0	
Nicholas_Miklouho-Maclay	1	1	0	0	0	0	0	0	0	0	
Enrico_Betti	0	0	0	1	0	0	0	0	0	0	
Nicholas_of_Cusa	0	0	1	1	0	0	0	0	0	0	
Johann_Friedrich_Herbart	0	0	0	0	0	0	1	0	0	0	
Ernst_Mach	0	0	1	0	0	0	0	0	0	0	
Ernesto_Samper	1	0	0	0	0	0	0	0	0	0	
Stephen_Faraone	0	0	0	0	0	0	0	0	0	1	
James_Crichton-Browne	0	1	0	0	0	0	0	0	0	0	
Abraham_Adrian_Albert	0	0	0	1	0	0	0	0	0	0	
Agustín_García_Calvo	0	0	0	0	0	1	0	0	0	0	
Kim_Campbell	1	0	0	0	0	0	0	0	0	0	
André_Lichnerowicz	0	0	1	1	0	0	0	0	0	0	
Ronald_Coase	1	0	0	0	0	0	0	0	0	0	
Lewis_Binford	1	0	0	0	0	0	0	0	0	0	
Marcela_Carena	0	0	1	0	0	0	0	0	0	0	
John_Stuart_Mill	1	0	0	0	0	0	0	0	0	0	
Sergey_Brin	0	0	0	0	0	0	0	0	1	0	
Roger_Woolger	0	0	0	0	0	0	1	0	0	0	
Ludwig_Wittgenstein	0	0	0	1	0	1	0	0	0	0	
Eric_Voegelin	1	0	0	0	0	0	0	0	0	0	
Fritz_Carlson	0	0	0	1	0	0	0	0	0	0	
Alfred_Marshall	1	0	0	0	0	0	0	0	0	0	
John_Tuzo_Wilson	0	0	1	0	0	0	0	1	0	0	
George_de_Hevesy	0	0	0	0	1	0	0	0	0	0	
Margaret_Singer	0	0	0	0	0	0	1	0	0	1	
Heinrich_Schliemann	1	0	0	0	0	0	0	0	0	0	
Joseph_Silk	0	0	1	0	0	0	0	0	0	0	
Augustus_Le_Plongeon	1	0	0	0	0	0	0	0	0	0	
Emmanuel_Todd	1	0	0	0	0	0	0	0	0	0	
Thomas_Reid	0	0	0	1	0	0	0	0	0	0	
James_Murdoch_Austin	0	0	0	1	0	0	0	0	0	0	
Adolph_Wagner	1	0	0	0	0	0	0	0	0	0	
M._S._Swaminathan	0	1	0	0	0	0	0	0	0	0	
William_Lawrence_Bragg	0	0	1	1	0	0	0	0	0	0	
Alexander_Borodin	0	0	0	0	1	0	0	0	0	0	
Louis_Agassiz	0	1	0	0	0	0	0	1	0	0	
Stanley_B._Prusiner	0	1	0	0	1	0	0	0	0	1	
Alexander_Oparin	0	1	0	0	1	0	0	0	0	0	
Peter_C._Aichelburg	0	0	1	0	0	0	0	0	0	0	
Bjarne_Stroustrup	0	0	0	0	0	0	0	0	1	0	
John_Gurdon	0	1	0	0	0	0	0	0	0	0	
José_García-Margallo_y_Marfil	1	0	0	0	0	0	0	0	0	0	
Dan_McKenzie_(geophysicist)	0	0	1	0	0	0	0	1	0	0	
Giambattista_Vico	1	0	0	0	0	0	0	0	0	0	
Arthur_Jensen	0	0	0	0	0	0	1	0	0	1	
Neil_Sloane	0	0	0	1	0	0	0	0	0	0	
Jan_Burgers	0	0	1	0	0	0	0	0	0	0	
Erwin_Schrödinger	0	1	1	0	0	0	0	0	0	0	
Ed_van_Thijn	0	0	0	0	0	0	0	0	0	1	
Marie_Stopes	0	1	0	0	0	0	0	0	0	0	
Ingrid_Daubechies	0	0	1	1	0	0	0	0	0	0	
Blaise_Pascal	0	0	1	1	0	0	0	0	1	0	
Diana_Baumrind	0	0	0	0	0	0	1	0	0	0	
Maurice_Leroy	1	0	0	0	0	0	0	0	0	0	
Franciszek_Ksawery_Drucki-Lubecki	1	0	0	0	0	0	0	0	0	0	
Theodore_von_Kármán	0	0	1	0	0	0	0	0	0	0	
Leonard_Gillman	0	0	0	1	0	0	0	0	0	0	
Marek_Belka	1	0	0	0	0	0	0	0	0	0	
James_Gosling	0	0	0	0	0	0	0	0	1	0	
Manny_Lehman_(computer_scientist)	0	0	0	0	0	0	0	0	1	0	
Archibald_Hill	0	1	1	1	0	0	0	0	0	1	
Alan_R._Battersby	0	0	0	0	1	0	0	0	0	0	
Samson_Abramsky	0	0	0	0	0	0	0	0	1	0	
John_Grinder	0	0	0	0	0	1	1	0	0	0	
Gerard_'t_Hooft	0	0	1	1	0	0	0	0	0	0	
Wilhelm_Röntgen	0	0	1	0	0	0	0	0	0	0	
Agatha_Christie	1	0	0	0	0	0	0	0	0	0	
David_Baulcombe	0	1	0	0	0	0	0	0	0	0	
Franz_von_Gruithuisen	0	0	1	0	0	0	0	0	0	0	
Gunnar_Myrdal	1	0	0	0	0	0	0	0	0	0	
Issai_Schur	0	0	0	1	0	0	0	0	0	0	
David_Olive	0	0	1	0	0	0	0	0	0	0	
Maxime_Bôcher	0	0	0	1	0	0	0	0	0	0	
Robert_Tjian	0	0	0	0	1	0	0	0	0	1	
Ahmad_Khani	0	0	1	0	0	0	0	0	0	0	
Danilo_Astori	1	0	0	0	0	0	0	0	0	0	
Sandra_Faber	0	0	1	0	0	0	0	0	0	0	
Edward_Mills_Purcell	0	0	1	0	0	0	0	0	0	0	
Ludwig_Binswanger	0	0	0	0	0	0	0	0	0	1	
Jacques-Louis_Lions	0	0	0	1	0	0	0	0	0	1	
Franz_Ernst_Neumann	0	0	1	1	0	0	0	0	0	0	
Frank_Adams	0	0	0	1	0	0	0	0	0	0	
Herbert_York	0	0	1	0	0	0	0	0	0	0	
Paul_Scherrer	0	0	1	0	0	0	0	0	0	0	
John_Locke	1	0	0	0	0	0	0	0	0	0	
Takis_Fotopoulos	1	0	0	0	0	0	0	0	0	0	
Manindra_Agrawal	0	0	0	1	0	0	0	0	1	0	
Robert_Coleman_Richardson	0	0	1	0	0	0	0	0	0	0	
Alexander_Davydov	0	0	1	0	0	0	0	0	0	0	
Roberto_Mangabeira_Unger	1	0	0	0	0	0	0	0	0	0	
Paul_Bert	0	1	0	0	0	0	0	0	0	0	
David_H._Hubel	0	1	0	0	0	0	0	0	0	0	
Ralph_H._Fowler	0	0	1	0	0	0	0	0	0	0	
Georgy_Flyorov	0	0	1	0	0	0	0	0	0	0	
Heinz_Hopf	0	0	0	1	0	0	0	0	0	0	
Indulis_Emsis	0	1	0	0	0	0	0	0	0	0	
Carl_Ludwig_Siegel	0	0	0	1	0	0	0	0	0	0	
Wilhelm_Wundt	0	1	0	0	0	0	1	0	0	0	
Joseph_Orbeli	1	0	0	0	0	0	0	0	0	0	
Alan_Baker_(mathematician)	0	0	0	1	0	0	0	0	0	0	
Jimmy_Wales	0	0	0	0	0	0	0	0	1	0	
Michael_Spence	1	0	0	0	0	0	0	0	0	0	
Martin_Feldstein	1	0	0	0	0	0	0	0	0	0	
Hans_Eysenck	0	0	0	0	0	0	1	0	0	1	
David_Graeber	1	0	0	0	0	0	0	0	0	0	
Philip_Wicksteed	1	0	0	0	0	0	0	0	0	0	
Alberto_Calderón	0	0	0	1	0	0	0	0	0	0	
Raymond_Williams	1	0	0	0	0	0	0	0	0	0	
Erdal_İnönü	0	0	1	0	0	0	0	0	0	0	
Manuel_Blum	0	0	0	0	0	0	0	0	1	0	
Robert_Hofstadter	0	0	1	0	0	0	0	0	0	0	
Pehr_Victor_Edman	0	0	0	0	1	0	0	0	0	0	
Dilma_Rousseff	1	0	0	0	0	0	0	0	0	0	
Jürgen_Ehlers	0	0	1	0	0	0	0	0	0	0	
Ewan_Birney	0	0	0	0	1	0	0	0	0	0	
Ruud_Lubbers	1	0	0	0	0	0	0	0	0	0	
Dorian_M._Goldfeld	0	0	0	1	0	0	0	0	0	0	
Bernard_Landry	1	0	0	0	0	0	0	0	0	0	
Gregory_Benford	0	0	1	0	0	0	0	0	0	0	
Gilbert_N._Lewis	0	0	1	0	1	0	0	0	0	0	
Niklaus_Wirth	0	0	0	0	0	0	0	0	1	1	
Arthur_C._Brooks	1	0	0	0	0	0	0	0	0	0	
Wanda_Kirkbride_Farr	0	1	0	0	0	0	0	0	0	0	
Chaudry_Mohammad_Aslam	0	0	0	1	0	0	0	0	0	0	
Dennis_Ritchie	0	0	0	0	0	0	0	0	1	0	
Wolfgang_Smith	0	0	1	1	0	0	0	0	0	0	
Robert_J._Shiller	1	0	0	0	0	0	0	0	0	0	
Gian-Carlo_Rota	0	0	0	1	0	0	0	0	0	0	
Haskell_Curry	0	0	0	1	0	0	0	0	1	0	
Peter_Swinnerton-Dyer	0	0	0	1	0	0	0	0	0	0	
Stanley_Cohen_(biochemist)	0	1	0	0	1	0	0	0	0	0	
Paul_of_Middelburg	0	0	1	1	0	0	0	0	0	0	
Daniel_Spielman	0	0	0	1	0	0	0	0	1	1	
Emil_Wolf	0	0	1	0	0	0	0	0	0	0	
Douglas_Osheroff	0	0	1	0	0	0	0	0	0	0	
Freeman_Dyson	0	0	1	1	0	0	0	0	0	0	
Dana_Scott	0	0	0	1	0	1	0	0	1	1	
Michael_Pepper	0	0	1	0	0	0	0	0	0	0	
Gerhard_Ertl	0	0	1	1	1	0	0	0	0	0	
Hermann_Weyl	0	0	1	1	0	0	0	0	0	0	
Bruce_Alberts	0	1	0	0	1	0	0	0	0	0	
Edvard_Beneš	1	0	0	0	0	0	0	0	0	0	
Paul_Milgrom	1	0	0	0	0	0	0	0	0	0	
Leena_Peltonen-Palotie	0	1	0	0	0	0	0	0	0	0	
Cleve_Moler	0	0	0	1	0	0	0	0	1	0	
Peter_Tait_(physicist)	0	0	1	1	0	0	0	0	0	0	
Christian_Wolff_(philosopher)	0	0	0	1	0	1	0	0	0	0	
James_Tour	0	0	0	0	1	0	0	0	0	0	
James_Van_Allen	0	0	1	0	0	0	0	0	0	0	
Alan_Greenspan	1	0	0	0	0	0	0	0	0	0	
Abdelwahed_Radi	0	0	0	0	0	0	1	0	0	0	
Arif_Zaman	0	0	0	1	0	0	0	0	0	0	
Thomas_Woods	1	0	0	0	0	0	0	0	0	0	
Oskar_Klein	0	0	1	0	0	0	0	0	0	0	
Aisin-Gioro_Ulhicun	0	0	0	0	0	1	0	0	0	0	
Per_Bak	0	0	1	0	0	0	0	0	0	0	
Joseph_W._Kennedy	0	0	1	0	0	0	0	0	0	0	
Dexter_Holland	0	1	0	0	0	0	0	0	0	0	
Carl_Schmidt_(chemist)	0	0	0	0	1	0	0	0	0	0	
Christopher_Spencer_Foote	0	0	0	0	1	0	0	0	0	0	
Charles_Babbage	1	0	1	1	0	0	0	0	1	0	
Rudolf_Peierls	0	0	1	1	0	0	0	0	0	0	
Sergey_Ivanovich_Vavilov	0	0	1	0	0	0	0	0	0	0	
Gabriel_Tarde	1	0	0	0	0	0	1	0	0	0	
Francis_E._Low	0	0	1	0	0	0	0	0	0	0	
Osamu_Shimomura	0	0	0	0	1	0	0	0	0	0	
Leopold_III_of_Belgium	0	1	0	0	0	0	0	0	0	0	
Ernst_Haeckel	0	1	0	0	0	0	0	0	0	0	
Grenville_Turner	0	0	1	0	0	0	0	0	0	0	
Keiji_Inafune	0	0	0	0	0	0	0	0	1	0	
Richard_Herrnstein	1	1	0	0	0	0	1	0	0	1	
Loren_Eiseley	1	0	0	0	0	0	0	0	0	0	
Karl_Jaspers	0	0	0	0	0	0	1	0	0	0	
Wilhelm_Ostwald	0	0	1	0	1	0	0	0	0	0	
Oskar_Piloty	0	0	0	0	1	0	0	0	0	0	
Vatroslav_Jagić	0	0	0	0	0	1	0	0	0	0	
Otto_Loewi	0	1	0	0	0	0	0	0	0	0	
Julia_Kristeva	1	0	0	0	0	1	1	0	0	0	
Linda_Gottfredson	0	0	0	0	0	0	1	0	0	1	
Carl_Porter_Duncan	0	0	0	0	0	0	1	0	0	0	
Robert_Edwards_(physiologist)	0	1	0	0	0	0	0	0	0	0	
Clifford_Geertz	1	0	0	0	0	0	0	0	0	0	
Ian_Chubb	0	1	0	0	0	0	0	0	0	0	
John_B._Goodenough	0	0	1	0	0	0	0	0	0	0	
Mysore_Doreswamy_Madhusudan	0	1	0	0	0	0	0	0	0	0	
Svante_Pääbo	0	1	0	1	0	0	0	0	0	0	
Hans-Hermann_Hoppe	1	0	0	0	0	0	0	0	0	0	
Jerry_Coyne	0	1	0	0	0	0	0	0	0	0	
Tim_Finin	0	0	0	0	0	0	0	0	1	1	
William_Rowan_Hamilton	0	0	1	1	0	0	0	0	0	0	
Bruce_Sundlun	1	0	0	0	0	0	0	0	0	0	
Ralph_Randles_Stewart	0	1	0	0	0	0	0	0	0	0	
Saunders_Mac_Lane	0	0	0	1	0	0	0	0	0	0	
Vannevar_Bush	0	0	0	0	0	0	0	0	1	0	
Terence_McKenna	0	0	0	0	0	0	0	0	0	1	
Friedrich_von_Wieser	1	0	0	0	0	0	0	0	0	0	
Wendy_Doniger	0	0	0	0	0	0	1	0	0	0	
Irving_Fisher	1	0	0	1	0	0	0	0	0	1	
Wolfgang_Paul	0	0	1	1	0	0	0	0	0	0	
Prosper_Mérimée	1	0	0	0	0	0	0	0	0	0	
Selman_Waksman	0	1	0	0	1	0	0	0	0	0	
Michael_Burrows	0	0	0	0	0	0	0	0	1	0	
Chrysippus	0	0	0	1	0	0	0	0	0	0	
Eduard_Suess	0	1	0	0	0	0	0	1	0	0	
Robert_Noyce	0	0	1	0	0	0	0	0	1	0	
Alfred_Romer	0	1	0	0	0	0	0	0	0	0	
Ian_Plimer	0	0	0	0	0	0	0	1	0	0	
Harlow_Shapley	0	0	1	0	0	0	0	0	0	0	
Richard_Stallman	0	0	0	0	0	0	0	0	1	1	
Arnold_Klebs	0	1	0	0	0	0	0	0	0	0	
Rudolf_Jaenisch	0	1	0	0	0	0	0	0	0	0	
Ralph_Merkle	0	0	0	0	0	0	0	0	1	0	
Ernst_Gottfried_Baldinger	0	1	0	0	0	0	0	0	0	0	
Vladimir_Chelomey	0	0	1	0	0	0	0	0	0	0	
Harold_Jeffreys	0	0	1	1	0	0	0	1	0	0	
Jack_Layton	1	0	0	0	0	0	0	0	0	0	
Mikhail_Mikhaylovich_Gerasimov	1	0	0	0	0	0	0	0	0	0	
Arnold_Harberger	1	0	0	0	0	0	0	0	0	0	
Humberto_Fernández_Morán	0	0	1	0	0	0	0	0	0	0	
Fred_Diamond	0	0	0	1	0	0	0	0	0	0	
Margaret_Geller	0	0	1	0	0	0	0	0	0	0	
Laurence_Chisholm_Young	0	0	0	1	0	0	0	0	0	1	
Yasutomi_Nishizuka	0	1	0	0	1	0	0	0	0	1	
Friedrich_Engels	1	0	0	0	0	0	0	0	0	0	
Igor_Shafarevich	0	0	0	1	0	0	0	0	0	0	
Mwai_Kibaki	1	0	0	0	0	0	0	0	0	0	
Kenneth_Waltz	1	0	0	0	0	0	0	0	0	0	
Bill_Buxton	0	0	0	0	0	0	0	0	0	1	
Brian_MacWhinney	0	0	0	0	0	1	1	0	0	0	
Robert_Weinberg	0	1	0	0	1	0	0	0	0	0	
Paul_Douglas	1	0	0	0	0	0	0	0	0	0	
Mauno_Koivisto	1	0	0	0	0	0	0	0	0	0	
Alexey_Favorsky	0	0	0	0	1	0	0	0	0	0	
Thorstein_Veblen	1	0	0	0	0	0	0	0	0	0	
Hans_Hahn_(mathematician)	0	0	0	1	0	0	0	0	0	0	
Jaime_Carbonell	0	0	0	0	0	0	0	0	1	0	
Georges_Lemaître	0	0	1	1	0	0	0	0	0	0	
Donald_C._Spencer	0	0	0	1	0	0	0	0	0	0	
Gustave_Choquet	0	0	0	1	0	0	0	0	0	0	
Harold_Garfinkel	1	0	0	0	0	0	0	0	0	0	
Léon_Brillouin	0	0	1	0	0	0	0	0	0	0	
James_Chadwick	0	0	1	0	0	0	0	0	0	0	
Kenneth_Rogoff	1	0	0	0	0	0	0	0	0	0	
Jean_Cavaillès	0	0	0	1	0	0	0	0	0	0	
Friedrich_Bessel	0	0	1	1	0	0	0	0	0	0	
Hans_Suess	0	0	1	0	1	0	0	0	0	0	
Johann_Wolfgang_von_Goethe	0	1	1	0	0	0	0	0	0	0	
Leslie_Valiant	0	0	0	0	0	0	0	0	1	0	
Andrew_Sears	0	0	0	0	0	0	0	0	0	1	
M._S._Bartlett	0	0	0	1	0	0	0	0	0	0	
Romano_Prodi	1	0	0	0	0	0	0	0	0	0	
Steven_A._Benner	0	1	0	0	1	0	0	0	0	0	
Alfred_G._Knudson	0	1	0	0	0	0	0	0	0	0	
Friedrich_Hirzebruch	0	0	0	1	0	0	0	0	0	0	
Christopher_Wren	0	0	1	1	0	0	0	0	0	0	
Tony_Hoare	0	0	0	0	0	0	0	0	1	1	
Jacques_Tits	0	0	0	1	0	0	0	0	0	0	
Umberto_Eco	0	0	0	0	0	1	0	0	0	0	
Javier_Diez_Canseco	1	0	0	0	0	0	0	0	0	0	
Judea_Pearl	0	0	0	0	0	0	0	0	1	1	
Erik_Erikson	1	0	0	0	0	0	1	0	0	0	
Louis_Bachelier	1	0	0	1	0	0	0	0	0	0	
Wilhelm_Kühne	0	1	0	0	1	0	0	0	0	0	
Abbie_Hoffman	0	0	0	0	0	0	1	0	0	0	
Jean-François_Le_Gall	0	0	0	1	0	0	0	0	0	0	
Paul_Ricœur	0	0	0	0	0	1	0	0	0	0	
Finn_E._Kydland	1	0	0	0	0	0	0	0	0	0	
Gilbert_Ryle	0	0	0	0	0	1	0	0	0	0	
Wilhelm_Pfeffer	0	1	0	0	0	0	0	0	0	0	
Leslie_Lamport	0	0	0	1	0	0	0	0	1	1	
Eugene_Fama	1	0	0	0	0	0	0	0	0	0	
August_Wilhelm_von_Hofmann	0	0	0	0	1	0	0	0	0	0	
Virginia_Woolf	1	0	0	0	0	0	0	0	0	0	
Fatos_Nano	1	0	0	0	0	0	0	0	0	0	
Albrecht_Fröhlich	0	0	0	1	0	0	0	0	0	0	
John_McDowell	0	0	0	0	0	1	0	0	0	0	
Benjamin_W._Lee	0	0	1	0	0	0	0	0	0	0	
Robert_Boyle	0	0	1	0	1	0	0	0	0	0	
Hans_Sennholz	1	0	0	0	0	0	0	0	0	0	
George_Crabbe	0	1	0	0	0	0	0	0	0	0	
Georg_Simmel	1	0	0	0	0	0	0	0	0	0	
Alan_Guth	0	0	1	0	0	0	0	0	0	0	
Manne_Siegbahn	0	0	1	0	0	0	0	0	0	0	
Claude_Henri_de_Rouvroy,_comte_de_Saint-Simon	1	0	0	0	0	0	0	0	0	0	
Sid_Meier	0	0	0	0	0	0	0	0	1	0	
James_Black_(pharmacologist)	0	1	0	0	1	0	0	0	0	0	
Jean-Baptiste_Lamarck	0	1	0	0	1	0	0	0	0	0	
David_Forbes_Hendry	1	0	0	0	0	0	0	0	0	0	
Leonard_Herzenberg	0	1	0	0	1	0	0	0	0	0	
Michael_O._Rabin	0	0	0	1	0	0	0	0	1	0	
Andrzej_Mostowski	0	0	0	1	0	0	0	0	0	0	
Gustaf_VI_Adolf_of_Sweden	1	0	0	0	0	0	0	0	0	0	
Leopold_Gmelin	0	0	0	0	1	0	0	0	0	0	
J._Bradford_DeLong	1	0	0	0	0	0	0	0	0	0	
Wilhelm_Rudolph_Fittig	0	0	0	0	1	0	0	0	0	0	
Don_Norman	0	0	0	0	0	0	1	0	1	1	
Douglas_Kell	0	0	0	0	1	0	0	0	0	0	
Timothy_Gowers	0	0	0	1	0	0	0	0	0	0	
Abraham_Pais	0	0	1	0	0	0	0	0	0	0	
Edward_T._Hall	1	0	0	0	0	1	1	0	0	0	
John_Searle	0	0	0	0	0	1	0	0	0	1	
Swapan_Chattopadhyay	0	0	1	0	0	0	0	0	0	0	
Michael_Munger	1	0	0	0	0	0	0	0	0	0	
Erwin_Neher	0	1	1	1	0	0	0	0	0	0	
Lev_Vygotsky	1	0	0	0	0	0	1	0	0	0	
Dorothy_Lewis_Bernstein	0	0	0	1	0	0	0	0	0	0	
Ferdinand_de_Saussure	1	0	0	0	0	1	0	0	0	0	
Friedrich_Hayek	1	0	0	0	0	0	0	0	0	0	
John_Tate	0	0	0	1	0	0	0	0	0	0	
Mario_Bunge	0	0	1	0	0	0	0	0	0	0	
Ben_Green_(mathematician)	0	0	0	1	0	0	0	0	0	0	
Yash_Pal	0	0	1	0	0	0	0	0	0	0	
Robert_Bunsen	0	0	1	0	1	0	0	0	0	0	
Murray_Rothbard	1	0	0	0	0	0	0	0	0	0	
Ken_Keeler	0	0	0	1	0	0	0	0	0	0	
Lene_Hau	0	0	1	0	0	0	0	0	0	0	
Eric_Garcetti	1	0	0	0	0	0	0	0	0	0	
Alfred_Sturtevant	0	1	0	0	0	0	0	0	0	0	
Abul_Lais_Siddiqui	0	0	0	0	0	1	0	0	0	0	
Robert_Ripley	1	0	0	0	0	0	0	0	0	0	
Na'im_Akbar	0	0	0	0	0	0	1	0	0	0	
Russell_Kirk	1	0	0	0	0	0	0	0	0	0	
Tom_Lehrer	0	0	0	1	0	0	0	0	0	0	
Denis_Diderot	0	1	0	0	0	0	0	0	0	0	
Hermann_Staudinger	0	0	0	0	1	0	0	0	0	0	
Venkatraman_Ramakrishnan	0	1	1	0	1	0	0	0	0	0	
Gordon_Moore	0	0	1	0	1	0	0	0	1	0	
Ronald_Ross	0	1	0	1	0	0	0	0	0	0	
John_C._Slater	0	0	1	0	1	0	0	0	0	0	
Evsey_Domar	1	0	0	0	0	0	0	0	0	0	
Roscoe_G._Dickinson	0	0	0	0	1	0	0	0	0	0	
Cahit_Arf	0	0	0	1	0	0	0	0	0	0	
Justus_von_Liebig	0	0	0	0	1	0	0	0	0	0	
Jerzy_Buzek	0	0	0	0	1	0	0	0	0	0	
Frederic_Calland_Williams	0	0	0	0	0	0	0	0	1	0	
Cyril_Ponnamperuma	0	0	0	0	1	0	0	0	0	0	
Walther_Bothe	0	0	1	1	1	0	0	0	0	0	
Leonida_Tonelli	0	0	0	1	0	0	0	0	0	0	
Paul_Montel	0	0	0	1	0	0	0	0	0	0	
Vaira_Vīķe-Freiberga	0	0	0	0	0	0	1	0	0	0	
Yanni	0	0	0	0	0	0	1	0	0	0	
Mark_Adler	0	0	1	1	0	0	0	0	1	0	
Ivan_Śleszyński	0	0	0	1	0	0	0	0	0	0	
Charles_Spearman	0	0	0	1	0	0	1	0	0	1	
Emil_Constantinescu	0	0	0	0	0	0	0	1	0	0	
J._H._C._Whitehead	0	0	0	1	0	0	0	0	0	0	
Hans_Hoogervorst	1	0	0	0	0	0	0	0	0	0	
Gérard_Debreu	1	0	0	1	0	0	0	0	0	0	
Paul_Nurse	0	1	0	0	1	0	0	0	0	0	
René_Guénon	0	0	0	0	0	1	0	0	0	0	
Vladimir_Mazya	0	0	0	1	0	0	0	0	0	0	
Hamid_Dabashi	1	0	0	0	0	0	0	0	0	0	
Paris_Kanellakis	0	0	0	0	0	0	0	0	1	1	
Antonis_Samaras	1	0	0	0	0	0	0	0	0	0	
Luigi_Pasinetti	1	0	0	0	0	0	0	0	0	0	
William_D._McElroy	0	0	0	0	1	0	0	0	0	0	
Norman_Abramson	0	0	0	0	0	0	0	0	1	0	
Makoto_Kobayashi_(physicist)	0	0	1	0	0	0	0	0	0	0	
John_Hickenlooper	0	0	0	0	0	0	0	1	0	0	
Raymond_Queneau	0	0	0	1	0	0	0	0	0	0	
Javier_Solana	0	0	1	0	0	0	0	0	0	0	
Chu_Ching-wu	0	0	1	0	0	0	0	0	0	0	
James_Meade	1	0	0	0	0	0	0	0	0	0	
Linda_B._Buck	0	1	0	0	0	0	0	0	0	1	
Diosdado_Macapagal	1	0	0	0	0	0	0	0	0	0	
Simon_Singh	0	0	1	0	0	0	0	0	0	0	
Mark_Krein	0	0	0	1	0	0	0	0	0	0	
Luis_Caffarelli	0	0	0	1	0	0	0	0	0	1	
Giordano_Bruno	0	0	1	0	0	0	0	0	0	0	
Zhores_Alferov	0	0	1	0	0	0	0	0	0	0	
John_Fenn_(chemist)	0	0	0	0	1	0	0	0	0	0	
Martin_Rodbell	0	1	0	0	1	0	0	0	0	0	
Gulzarilal_Nanda	1	0	0	0	0	0	0	0	0	0	
Jean_Tirole	1	0	0	0	0	0	0	0	0	0	
Lawrence_Summers	1	0	0	0	0	0	0	0	0	0	
Philip_Warren_Anderson	0	0	1	0	0	0	0	0	0	0	
Robin_Hahnel	1	0	0	0	0	0	0	0	0	0	
Chia-Chiao_Lin	0	0	1	1	0	0	0	0	0	0	
Ibn_Khaldun	1	0	0	0	0	0	0	0	0	0	
Daniel_Bovet	0	1	0	0	0	0	0	0	0	0	
James_Cordy	0	0	0	0	0	0	0	0	0	1	
António_de_Oliveira_Salazar	1	0	0	0	0	0	0	0	0	0	
Ludwig_von_Bertalanffy	0	1	0	0	0	0	0	0	0	0	
Don_Zagier	0	0	0	1	0	0	0	0	0	0	
Gustav_Cassel	1	0	0	0	0	0	0	0	0	0	
Andrew_Yao	0	0	0	0	0	0	0	0	1	0	
Erich_Fromm	1	0	0	0	0	0	1	0	0	0	
Pim_Fortuyn	1	0	0	0	0	0	0	0	0	1	
Marye_Anne_Fox	0	0	0	0	1	0	0	0	0	0	
Cordwainer_Smith	0	0	0	0	0	0	1	0	0	0	
Henri_Bénard	0	0	1	0	0	0	0	0	0	0	
John_Bates_Clark	1	0	0	0	0	0	0	0	0	0	
Israel_Finkelstein	1	0	0	0	0	0	0	0	0	0	
Paul_Lauterbur	0	0	1	0	1	0	0	0	0	0	
Donald_Lynden-Bell	0	0	1	0	0	0	0	0	0	0	
Russ_Roberts	1	0	0	0	0	0	0	0	0	0	
Vladimir_Nabokov	0	1	0	0	0	0	0	0	0	0	
Ernest_Renan	0	0	0	0	0	1	0	0	0	0	
Per_Enflo	0	0	0	1	0	0	0	0	0	0	
Costanzo_Preve	1	0	0	0	0	0	0	0	0	0	
Peter_Lax	0	0	0	1	0	0	0	0	0	1	
T._E._Lawrence	1	0	0	0	0	0	0	0	0	0	
Dolph_Lundgren	0	0	0	0	1	0	0	0	0	0	
J._B._Gunn	0	0	1	0	0	0	0	0	0	0	
G._I._Taylor	0	0	1	1	0	0	0	0	0	0	
Nikolaus_Riehl	0	0	1	0	1	0	0	0	0	0	
Allen_J._Bard	0	0	0	0	1	0	0	0	0	0	
Gerald_Guralnik	0	0	1	0	0	0	0	0	0	0	
Riccardo_Giacconi	0	0	1	0	0	0	0	0	0	0	
Nicholas_Kemmer	0	0	1	0	0	0	0	0	0	0	
James_Braid_(surgeon)	0	0	0	0	0	0	1	0	0	0	
Alexander_Ostrowski	0	0	0	1	0	0	0	0	0	0	
Erez_Lieberman_Aiden	0	0	0	0	0	0	0	0	1	0	
James_Gregory_(mathematician)	0	0	1	1	0	0	0	0	0	0	
Henry_Norris_Russell	0	0	1	0	0	0	0	0	0	0	
Henri_Bergson	1	0	0	0	0	0	1	0	0	0	
Stephen_Cole_Kleene	0	0	0	1	0	0	0	0	1	0	
Abram_Samoilovitch_Besicovitch	0	0	0	1	0	0	0	0	0	0	
Aleksandr_Danilovich_Aleksandrov	0	0	1	1	0	0	0	0	0	0	
Ahmed_Zewail	0	0	1	0	1	0	0	0	0	0	
Andrei_Okounkov	0	0	0	1	0	0	0	0	0	0	
Mark_Bender_Gerstein	0	1	0	0	0	0	0	0	1	0	
Alexander_Oppenheim	0	0	0	1	0	0	0	0	0	0	
Henry_Kissinger	1	0	0	0	0	0	0	0	0	0	
Johann_Friedrich_Gmelin	0	1	0	0	1	0	0	0	0	0	
John_Muth	1	0	0	1	0	0	0	0	0	0	
Eric_Lander	1	1	0	1	0	0	0	0	0	0	
Hubert_Dreyfus	0	0	0	0	0	0	0	0	0	1	
Mathieu_Orfila	0	1	0	0	1	0	0	0	0	0	
Donald_Michie	0	0	0	0	0	0	0	0	1	1	
Aldo_Leopold	0	1	0	0	0	0	0	0	0	0	
Georg_Ohm	0	0	1	1	0	0	0	0	0	0	
Paracelsus	0	0	1	0	1	0	0	0	0	0	
John_Hasbrouck_Van_Vleck	0	0	1	1	0	0	0	0	0	0	
Shafi_Goldwasser	0	0	0	1	0	0	0	0	1	0	
Ferdinand_von_Lindemann	0	0	0	1	0	0	0	0	0	0	
Chaim_Weizmann	0	0	0	0	1	0	0	0	0	0	
Robert_Anton_Wilson	0	0	0	0	0	0	0	0	0	1	
Pierre_Louis_Maupertuis	0	1	1	1	0	0	0	0	0	0	
Henry_Augustus_Rowland	0	0	1	0	0	0	0	0	0	0	
Elias_James_Corey	0	0	0	0	1	0	0	0	0	0	
Jan_Smuts	0	1	0	0	0	0	0	0	0	0	
Richard_Adolf_Zsigmondy	0	0	1	0	1	0	0	0	0	0	
Homi_Sethna	0	0	1	0	1	0	0	0	0	0	
Mikio_Sato	0	0	0	1	0	0	0	0	0	0	
Thanu_Padmanabhan	0	0	1	0	0	0	0	0	0	0	
Jeffrey_Sachs	1	0	0	0	0	0	0	0	0	0	
Martin_Nowak	0	1	0	1	0	0	0	0	0	0	
Jeremy_Bentham	1	0	0	0	0	0	0	0	0	0	
Bram_Peper	1	0	0	0	0	0	0	0	0	1	
Karl_Ferdinand_Braun	0	0	1	0	0	0	0	0	0	0	
William_Lipscomb	0	0	0	0	1	0	0	0	0	0	
Duncan_J._Watts	1	0	1	0	0	0	0	0	0	0	
Edward_Victor_Appleton	0	0	1	0	0	0	0	0	0	0	
Rashid_Sunyaev	0	0	1	0	0	0	0	0	0	0	
Alexander_Lukashenko	1	0	0	0	0	0	0	0	0	0	
Élie_Cartan	0	0	0	1	0	0	0	0	0	0	
Hirohito	0	1	0	0	0	0	0	0	0	0	
C._Wright_Mills	1	0	0	0	0	0	0	0	0	0	
Hannes_Alfvén	0	0	1	0	0	0	0	0	0	0	
Yoichiro_Nambu	0	0	1	0	0	0	0	0	0	0	
Gregory_Petsko	0	0	0	0	1	0	0	0	0	0	
Igor_Tamm	0	0	1	0	0	0	0	0	0	0	
Frederick_Mosteller	1	0	0	1	0	0	0	0	0	0	
James_Binney	0	0	1	0	0	0	0	0	0	0	
Catherine_Asaro	0	0	1	0	0	0	0	0	0	0	
S._R._Srinivasa_Varadhan	0	0	0	1	0	0	0	0	0	0	
Anton_Zeilinger	0	0	1	0	0	0	0	0	0	0	
Yozo_Matsushima	0	0	0	1	0	0	0	0	0	0	
Bill_Wyman	1	0	0	0	0	0	0	0	0	0	
Hermann_Arthur_Jahn	0	0	1	0	1	0	0	0	0	0	
Al-Kindi	0	0	1	1	0	0	0	0	0	0	
James_Robertson_Justice	0	1	0	0	0	0	0	0	0	0	
Francis_Galton	1	1	0	1	0	0	1	0	0	1	
Charles_W._Misner	0	0	1	0	0	0	0	0	0	0	
Edwin_G._Krebs	0	0	0	0	1	0	0	0	0	1	
Moritz_Schlick	0	0	1	0	0	0	0	0	0	0	
Victor_Goldschmidt	0	0	0	0	1	0	0	1	0	0	
Muzafer_Sherif	0	0	0	0	0	0	1	0	0	0	
Thomas_Hunt_Morgan	0	1	0	0	0	0	0	0	0	0	
Avicenna	0	0	1	1	1	0	0	0	0	0	
Eugene_Dynkin	0	0	0	1	0	0	0	0	0	0	
Zaki_al-Arsuzi	1	0	0	0	0	0	0	0	0	0	
Robert_Tarjan	0	0	0	1	0	0	0	0	1	0	
L._Ron_Hubbard	0	0	1	0	0	0	0	0	0	0	
Michael_Aschbacher	0	0	0	1	0	0	0	0	0	0	
Pierre_Colas	1	0	0	0	0	0	0	0	0	0	
Arthur_Kornberg	0	0	0	0	1	0	0	0	0	0	
Arnold_Orville_Beckman	0	0	0	0	1	0	0	0	0	0	
Lujo_Brentano	1	0	0	0	0	0	0	0	0	0	
Oskar_Anderson	1	0	0	1	0	0	0	0	0	0	
Stephen_Hawking	0	0	1	0	0	0	0	0	0	0	
Srinivasa_Ramanujan	0	0	0	1	0	0	0	0	0	0	
Ken_Thompson	0	0	0	0	0	0	0	0	1	0	
Napoleon	0	0	0	1	0	0	0	0	0	0	
John_Polkinghorne	0	0	1	0	0	0	0	0	0	0	
W._V._D._Hodge	0	0	0	1	0	0	0	0	0	0	
Johan_Witteveen	1	0	0	0	0	0	0	0	0	0	
Aleksander_Jabłoński	0	0	1	0	0	0	0	0	0	0	
Juan_Manuel_Santos	1	0	0	0	0	0	0	0	0	0	
Merton_Miller	1	0	0	0	0	0	0	0	0	0	
Gabriele_Falloppio	0	1	0	0	0	0	0	0	0	0	
Edwin_Holt	0	0	0	0	0	0	1	0	0	0	
Oskar_R._Lange	1	0	0	0	0	0	0	0	0	0	
Nikolay_Dollezhal	0	0	1	0	0	0	0	0	0	0	
Alexander_Hamilton	1	0	0	0	0	0	0	0	0	0	
Al-Ghazali	1	0	0	0	0	0	0	0	0	0	
Poul_Anderson	0	0	1	0	0	0	0	0	0	0	
Ivan_Sutherland	0	0	0	0	0	0	0	0	1	1	
Pierre_Deligne	0	0	0	1	0	0	0	0	0	0	
Danielle_Bunten_Berry	0	0	0	0	0	0	0	0	1	0	
Alvin_M._Weinberg	0	0	1	0	0	0	0	0	0	0	
Karl_Marx	1	0	0	0	0	0	0	0	0	0	
Mykola_Azarov	0	0	1	0	0	0	0	1	0	0	
Michael_Ashburner	0	1	0	0	0	0	0	0	0	0	
Hans_Heilbronn	0	0	0	1	0	0	0	0	0	0	
Jacob_Marschak	1	0	0	0	0	0	0	0	0	0	
Joseph_L._Goldstein	0	1	0	0	1	0	0	0	0	0	
Edward_Sapir	1	0	0	0	0	1	0	0	0	0	
George_Forsythe	0	0	0	1	0	0	0	0	1	0	
Sadako_Ogata	1	0	0	0	0	0	0	0	0	0	
Richard_Zare	0	0	0	0	1	0	0	0	0	0	
Heinz_Pose	0	0	1	0	0	0	0	0	0	0	
Édouard_Claparède	0	0	0	0	0	0	1	0	0	0	
John_Maynard_Keynes	1	0	0	1	0	0	0	0	0	0	
Sherwood_Washburn	1	0	0	0	0	0	0	0	0	0	
Victor_Grignard	0	0	0	0	1	0	0	0	0	0	
Maurice_Wilkes	0	0	1	1	0	0	0	0	1	0	
Raymond_Barre	1	0	0	0	0	0	0	0	0	0	
Julius_Evola	1	0	0	0	0	0	0	0	0	0	
David_Brewster	0	0	1	1	0	0	0	0	0	0	
Georges-Louis_Leclerc,_Comte_de_Buffon	0	1	1	1	0	0	0	0	0	0	
Fritz_Pregl	0	0	0	0	1	0	0	0	0	0	
Jacqueline_Barton	0	0	0	0	1	0	0	0	0	0	
Henryk_Iwaniec	0	0	0	1	0	0	0	0	0	1	
Lou_Henry_Hoover	0	0	0	0	0	0	0	1	0	0	
Lennart_Carleson	0	0	0	1	0	0	0	0	0	0	
Guido_van_Rossum	0	0	0	0	0	0	0	0	1	0	
Boethius	0	0	0	1	0	0	0	0	0	0	
Erle_Stanley_Gardner	1	0	0	0	0	0	0	0	0	0	
Hiram_Bingham_III	1	0	0	0	0	0	0	0	0	0	
Eugene_Wigner	0	0	1	1	0	0	0	0	0	0	
Andy_Hopper	0	0	0	0	0	0	0	0	1	0	
Katharine_Graham	0	0	0	0	0	0	0	0	0	1	
Stanley_Cavell	0	0	0	0	0	1	0	0	0	0	
Johann_Franz_Encke	0	0	1	0	0	0	0	0	0	0	
P._F._Strawson	0	0	0	0	0	1	0	0	0	0	
Robert_Lee_Moore	0	0	0	1	0	0	0	0	0	0	
Michael_Levitt	0	1	1	0	1	0	0	0	0	0	
Wendell_L._Roelofs	0	0	0	0	1	0	0	0	0	0	
Ralph_Larkin	1	0	0	0	0	0	0	0	0	0	
Gunnar_Nordström	0	0	1	0	0	0	0	0	0	0	
William_Giauque	0	0	0	0	1	0	0	0	0	0	
Cyril_Domb	0	0	1	0	0	0	0	0	0	0	
Mary_Douglas	1	0	0	0	0	0	0	0	0	0	
Demetrios_Christodoulou	0	0	1	1	0	0	0	0	0	0	
Brad_Trost	0	0	1	0	0	0	0	1	0	0	
Jayant_Narlikar	0	0	1	0	0	0	0	0	0	0	
Harish-Chandra	0	0	1	1	0	0	0	0	0	0	
Albert_Schatz_(scientist)	0	1	0	0	0	0	0	0	0	0	
Ludvig_Faddeev	0	0	1	1	0	0	0	0	0	0	
Philip_Wadler	0	0	0	0	0	0	0	0	1	1	
Jean-Marcel_Jeanneney	1	0	0	0	0	0	0	0	0	0	
Stephen_Harper	1	0	0	0	0	0	0	0	0	0	
Alassane_Ouattara	1	0	0	0	0	0	0	0	0	0	
Georges_Palante	1	0	0	0	0	0	0	0	0	0	
Steve_Brooks_(statistician)	0	0	0	1	0	0	0	0	0	0	
Alfred_Russel_Wallace	1	1	0	1	0	0	0	0	0	0	
James_Watson	0	1	1	0	1	0	0	0	0	0	
Steven_Weinberg	0	0	1	0	0	0	0	0	0	0	
Jürgen_Moser	0	0	0	1	0	0	0	0	0	0	
Arthur_Compton	0	0	1	0	0	0	0	0	0	0	
Horst_Köhler	1	0	0	0	0	0	0	0	0	0	
W._I._Thomas	1	0	0	0	0	0	0	0	0	0	
Maurice_Ewing	0	0	1	0	0	0	0	1	0	0	
Ryszard_Syski	0	0	0	1	0	0	0	0	0	0	
Frank_Shu	0	0	1	0	0	0	0	0	0	0	
Rachel_Carson	0	1	0	0	0	0	0	0	0	0	
Guy_Spitaels	1	0	0	0	0	0	0	0	0	0	
Keith_J._Laidler	0	0	0	0	1	0	0	0	0	0	
Ivar_Karl_Ugi	0	0	0	0	1	0	0	0	0	0	
Lodewijk_Asscher	0	0	0	0	0	0	0	0	0	1	
Kurt_Diebner	0	0	1	0	0	0	0	0	0	0	
Pierre_Janet	0	0	0	0	0	0	1	0	0	0	
Thomas_Henry_Huxley	0	1	0	0	0	0	0	0	0	0	
Hermann_Lotze	0	0	0	0	0	1	1	0	0	0	
Yasuo_Fukuda	1	0	0	0	0	0	0	0	0	0	
Jens_Stoltenberg	1	0	0	0	0	0	0	0	0	0	
Elizabeth_Blackburn	0	1	0	0	1	0	0	0	0	0	
Laurent_Schwartz	0	1	0	1	0	0	0	0	0	0	
Philip_Leder	0	1	0	0	0	0	0	0	0	0	
Bruce_C._Murray	0	0	0	0	0	0	0	1	0	0	
Ólafur_Ragnar_Grímsson	1	0	0	0	0	0	0	0	0	0	
Otto_Heinrich_Warburg	0	1	0	0	1	0	0	0	0	1	
Stanley_Mandelstam	0	0	1	0	0	0	0	0	0	0	
Mark_Eyskens	1	0	0	0	0	0	0	0	0	0	
Adolf_Hurwitz	0	0	0	1	0	0	0	0	0	0	
Michel_Kervaire	0	0	0	1	0	0	0	0	0	0	
Andrey_Korotayev	1	0	0	1	0	0	0	0	0	0	
Israel_Gelfand	0	1	0	1	0	0	0	0	0	0	
Dominique_Strauss-Kahn	1	0	0	0	0	0	0	0	0	0	
Shigeru_Miyamoto	0	0	0	0	0	0	0	0	1	0	
Iain_Stewart_(geologist)	0	0	0	0	0	0	0	1	0	0	
Simon_Ramo	0	0	1	0	0	0	0	0	0	0	
Eric_Hobsbawm	1	0	0	0	0	0	0	0	0	0	
Robert_B._Laughlin	0	0	1	0	0	0	0	0	0	0	
Ilya_Prigogine	0	0	1	0	1	0	0	0	0	0	
Imre_Lakatos	0	0	1	1	0	0	0	0	0	0	
Robert_Musil	0	0	0	0	0	0	1	0	0	0	
Louis_Néel	0	0	1	0	0	0	0	0	0	0	
David_Mumford	0	0	0	1	0	0	0	0	0	0	
Maurice_Anthony_Biot	0	0	1	1	0	0	0	0	0	0	
Mary_Haas	0	0	0	0	0	1	0	0	0	0	
Robert_Fogel	1	0	0	0	0	0	0	0	0	0	
Herbert_A._Simon	1	0	0	0	0	0	1	0	1	1	
Richard_Stone	1	0	0	1	0	0	0	0	0	0	
Robert_Gallo	0	1	0	0	0	0	0	0	0	1	
Herbert_Kroemer	0	0	1	0	0	0	0	0	0	0	
William_Noel_Benson	0	0	0	0	0	0	0	1	0	0	
Robert_Bruce_Lindsay	0	0	1	0	0	0	0	0	0	0	
Herbert_S._Green	0	0	1	1	0	0	0	0	0	0	
Hal_Clement	0	0	1	0	0	0	0	0	0	0	
George_F._Carrier	0	0	1	1	0	0	0	0	0	0	
Daniel_Kahneman	1	0	0	0	0	0	1	0	0	0	
Harry_Markowitz	1	0	0	0	0	0	0	0	0	0	
Talcott_Parsons	1	1	0	0	0	0	0	0	0	0	
Carl_Schorlemmer	0	0	0	0	1	0	0	0	0	0	
Louis_Nirenberg	0	0	0	1	0	0	0	0	0	1	
Peter_Gustav_Lejeune_Dirichlet	0	0	0	1	0	0	0	0	0	0	
Max_Born	0	0	1	1	0	0	0	0	0	0	
Leonhard_Euler	0	0	1	1	0	0	0	0	0	0	
Carl_Gustav_Jacob_Jacobi	0	0	0	1	0	0	0	0	0	0	
Beatrix_Potter	0	1	0	0	0	0	0	0	0	0	
Peter_Debye	0	0	1	1	1	0	0	0	0	0	
Ben_Polak	1	0	0	0	0	0	0	0	0	0	
Jean-François_Copé	1	0	0	0	0	0	0	0	0	0	
Edsger_W._Dijkstra	0	0	1	1	0	0	0	0	1	1	
Joseph_Wedderburn	0	0	0	1	0	0	0	0	0	0	
Robert_Kowalski	0	0	0	1	0	0	0	0	1	1	
Henri_Moissan	0	0	0	0	1	0	0	0	0	0	
Alan_Lloyd_Hodgkin	0	1	1	0	1	0	0	0	0	0	
Daniel_Vorländer	0	0	0	0	1	0	0	0	0	0	
John_Herschel	0	0	1	1	1	0	0	0	0	0	
Louis_Pasteur	0	1	0	0	1	0	0	0	0	0	
Gilbert_Stork	0	0	0	0	1	0	0	0	0	0	
Carl_Friedrich_Gauss	0	0	1	1	0	0	0	0	0	0	
Susumu_Tonegawa	0	1	0	0	1	0	0	0	0	1	
David_Brin	0	0	1	0	0	0	0	0	0	0	
William_Kingdon_Clifford	0	0	0	1	0	0	0	0	0	0	
Bruce_Ames	0	1	0	0	1	0	0	0	0	0	
Franz_Boas	1	0	0	0	0	1	0	0	0	0	
Emmy_Noether	0	0	1	1	0	0	0	0	0	0	
Jane_Goodall	1	1	0	0	0	0	0	0	0	0	
Richard_M._Karp	0	0	0	1	0	0	0	0	1	1	
Augustin-Louis_Cauchy	0	0	1	1	0	0	0	0	0	0	
Hugh_Huxley	0	1	1	0	0	0	0	0	0	0	
Yuan_Longping	0	1	0	0	0	0	0	0	0	0	
Richard_Axel	0	1	1	0	1	0	0	0	0	1	
Fritz_Sauter	0	0	1	0	0	0	0	0	0	0	
Stanley_Deser	0	0	1	0	0	0	0	0	0	0	
Leonard_Eugene_Dickson	0	0	0	1	0	0	0	0	0	0	
Karl_Carstens	1	0	0	0	0	0	0	0	0	0	
Leon_Festinger	1	0	0	0	0	0	1	0	0	0	
David_Haussler	0	1	0	0	0	0	0	0	1	1	
Gillian_Rose	1	0	0	0	0	0	0	0	0	0	
David_Botstein	0	1	0	0	0	0	0	0	0	0	
Diederik_Korteweg	0	0	0	1	0	0	0	0	0	0	
Stephen_G._Hall	1	0	0	0	0	0	0	0	0	0	
Paul_Sweezy	1	0	0	0	0	0	0	0	0	0	
Enrico_Letta	1	0	0	0	0	0	0	0	0	0	
Werner_Fenchel	0	0	0	1	0	0	0	0	0	0	
Gilbert_Simondon	0	0	0	0	0	0	1	0	0	0	
Walter_Heitler	0	0	1	0	1	0	0	0	0	0	
Vladimir_E._Zakharov	0	0	1	1	0	0	0	0	0	0	
Bill_Gates	0	0	0	0	0	0	0	0	1	0	
Roger_Needham	0	0	0	0	0	0	0	0	1	0	
Harry_B._Whittington	0	1	0	0	0	0	0	1	0	0	
William_Baumol	1	0	0	0	0	0	0	0	0	0	
Robert_Barro	1	0	0	0	0	0	0	0	0	0	
Jaroslav_Heyrovský	0	0	1	0	1	0	0	0	0	0	
Robert_Aumann	1	0	0	1	0	0	0	0	0	0	
Jim_Yong_Kim	1	0	0	0	0	0	0	0	0	0	
Jean_Baptiste_Perrin	0	0	1	0	1	0	0	0	0	0	
Claude_Chevalley	0	0	0	1	0	0	0	0	0	0	
Clyde_Tombaugh	0	0	1	0	0	0	0	0	0	0	
Jesse_Ventura	0	0	0	0	0	0	0	0	0	1	
David_J._Farber	0	0	0	0	0	0	0	0	1	0	
Frederick_Sanger	0	1	0	0	1	0	0	0	0	0	
Lev_Pontryagin	0	0	0	1	0	0	0	0	0	0	
Elio_Di_Rupo	0	0	0	0	1	0	0	0	0	0	
J._A._Todd	0	0	0	1	0	0	0	0	0	0	
Robert_Döpel	0	0	1	0	0	0	0	0	0	0	
Nicolaus_Copernicus	1	0	1	1	0	0	0	0	0	0	
Miloš_Zeman	1	0	0	0	0	0	0	0	0	0	
Pierre-Dominique_Bazaine	0	0	0	1	0	0	0	0	0	0	
George_Perry_(neuroscientist)	0	1	0	0	0	0	0	0	0	1	
Cesare_Arzelà	0	0	0	1	0	0	0	0	0	0	
Alan_J._Heeger	0	0	1	0	1	0	0	0	0	0	
Sibawayh	0	0	0	0	0	1	0	0	0	0	
Rudolf_Mössbauer	0	0	1	0	0	0	0	0	0	0	
Martin_Karplus	0	0	0	0	1	0	0	0	0	0	
Theodor_W._Hänsch	0	0	1	1	0	0	0	0	0	1	
Nitin_Saxena	0	0	0	1	0	0	0	0	1	0	
Max_Noether	0	0	0	1	0	0	0	0	0	0	
Christiane_Nüsslein-Volhard	0	1	0	1	1	0	0	0	0	1	
Jürgen_Habermas	1	0	0	1	0	0	0	0	0	0	
Piet_Hein_Donner	0	0	0	0	0	0	0	0	0	1	
George_F._Kennan	1	0	0	0	0	0	0	0	0	0	
Nikola_Tesla	0	0	1	0	0	0	0	0	0	0	
Muhammad_Raziuddin_Siddiqui	0	0	1	1	0	0	0	0	0	0	
George_Boole	0	0	0	1	0	0	0	0	1	0	
Catherine_Malabou	0	0	0	0	0	1	0	0	0	0	
Sendhil_Mullainathan	1	0	0	0	0	0	0	0	0	0	
E._F._Schumacher	1	0	0	1	0	0	0	0	0	0	
J._J._Thomson	0	0	1	1	0	0	0	0	0	0	
Fridtjof_Nansen	0	1	0	0	0	0	0	0	0	0	
